CIF file                                
   1.00000000000000     
    11.3519997597000071    0.0000000000000000    0.0000000000000000
     0.0000000000000000   11.3519997597000071    0.0000000000000000
     0.0000000000000000    0.0000000000000000    9.6265001297000055
   Ti   O    Ta
    35    72     1
Direct
  0.1664112285805989  0.0000298876459739  0.7498037496918508
  0.4999991853735812  0.9999887734683788  0.7538303801197423
  0.8336047442585703  0.9999699896699537  0.7498225580094120
  0.1661904358813691  0.3331358899679966  0.7491560308146986
  0.4999885381003051  0.3301816210977222  0.7566583880503663
  0.8338208737280672  0.3331234763411213  0.7491339830752781
  0.1661823693490286  0.6668921848097360  0.7491522386807982
  0.4999934423146131  0.6697846348247963  0.7566068198878154
  0.8338179750847298  0.6668630041754613  0.7491244866526066
  0.9999863797168698  0.1663960293171629  0.2501269093141897
  0.3331349876127924  0.1661856139471825  0.2508830827836048
  0.6668695105465591  0.1661709937421794  0.2508187492047438
  0.0000033580792926  0.5000132091811125  0.2461729288551406
  0.3302461826057652  0.5000211835434716  0.2434504765373684
  0.6697530654394122  0.4999901557538864  0.2434297575642748
  0.0000203457797113  0.8336333341744419  0.2500986669289020
  0.3331377583085619  0.8338240766082676  0.2508243570353740
  0.6668664459871700  0.8338048798319020  0.2508461521126528
  0.0000133629256015  0.0000048690276485  0.9999304650023337
  0.3323277366696266  0.0000328785402173  0.0001905172895330
  0.6676767995398556  0.9999813261505905  0.0001732563710692
  0.9999911712036722  0.3323201557559143  0.9998074837785440
  0.3316432063828904  0.3316873676212844  0.0000754832944781
  0.6683306455147040  0.3316674698504629  1.0000104175049978
 -0.0000009575357036  0.6676707390848577  0.9997935497663650
  0.3316753976642461  0.6683316545726316  0.0000118083565871
  0.6683310599892056  0.6683221550372368  1.0000058480601826
  0.1663822778339983  0.1664430684918468  0.4999552523256324
  0.5000064135717969  0.1640722240870217  0.5001018323820708
  0.8335878887978250  0.1663695518139686  0.4999936401539011
  0.1640624039401750  0.5000329195914914  0.4999433536734828
  0.8359167226942066  0.4999760608533502  0.4998906627333565
  0.1664033017085007  0.8336266175292305  0.4999725724170276
  0.4999973384294801  0.8359168289316570  0.5000969010251390
  0.8336056730369688  0.8335710705079797  0.4999428936821649
  0.0000080074374165  0.9999848807685842  0.7936567910177371
  0.3331617388058657  0.0000179241342580  0.7946240717887528
  0.6668363013011018  0.9999782017830955  0.7946091886767838
  0.0000055599010935  0.3336154352994031  0.7930524236855171
  0.3331385185292102  0.3333322589111050  0.7943942666246259
  0.6668476368269173  0.3333075413750334  0.7943217958660809
 -0.0000006105215174  0.6664126232706437  0.7930272207880473
  0.3331492545964288  0.6666633484000216  0.7943293744740472
  0.6668505827752359  0.6666818978692702  0.7943240519836149
  0.1668223876994130  0.1666369832757445  0.2940955545380039
  0.5000024396472940  0.1667243140613399  0.2952921336278810
  0.8331710119862167  0.1666026564668144  0.2940882657691692
  0.1664857587458816  0.5001095012425989  0.2922328816244941
  0.4999936899081032  0.4999506682448929  0.2911590625017088
  0.8335077632762635  0.4999954365315560  0.2921787334280649
  0.1668380955630501  0.8332926317301550  0.2940795347891362
  0.5000010617276732  0.8332852561364205  0.2952911623489530
  0.8331755586527196  0.8333797946764427  0.2940663447085898
  0.9999041984731233  0.1664728814817094  0.0438926121732142
  0.3330178084924463  0.1663406542943979  0.0443604280497704
  0.6670551705025218  0.1663096243462732  0.0442782610385613
  0.0000353864921125  0.4999999803141341  0.0428048257862727
  0.3324754584107344  0.4999985568931756  0.0420714246988913
  0.6675149641477821  0.4999971532098770  0.0420262636125460
  0.0000516815580401  0.8335435746684485  0.0438551216318085
  0.3329491990462514  0.8336932778758918  0.0442758611624562
  0.6670095721319105  0.8336600904814208  0.0443085682402091
  0.1667693528519648  0.0000186401214478  0.5438737619739409
  0.5000402922129478  0.9999964757050337  0.5454506531406117
  0.8332295332258248  0.9999837842148900  0.5438906887092256
  0.1668106221972851  0.3336499934503832  0.5431461069192326
  0.4999984706225493  0.3325946664953328  0.5459215160671171
  0.8332002293695445  0.3336092646676386  0.5431434509795832
  0.1667758605483311  0.6663926409915298  0.5431636298917282
  0.5000222965262840  0.6673775674283896  0.5458936187803525
  0.8332028088630780  0.6663587189988001  0.5431112378201042
  0.1664689021745727  0.0001072174347512  0.9560566926650694
  0.4999998729942131  0.9999998164301666  0.9572013582253731
  0.8335372035460982  0.9999404028865724  0.9560577684466393
  0.1663129270264865  0.3329634410803669  0.9557179062163168
  0.4999904374356753  0.3324170278243952  0.9580744582812347
  0.8336783694116374  0.3330419985179865  0.9556710574125271
  0.1663263127990652  0.6669938367876701  0.9556918214575254
  0.4999992362521580  0.6675623855423274  0.9580341285511794
  0.8336819567718782  0.6669939829495807  0.9556705510581895
  0.9999897370646594  0.1667527603591093  0.4560624925064720
  0.3336385894566041  0.1668164517430420  0.4568579906096215
  0.6663674611739774  0.1668141969072265  0.4568198383393788
  0.9999935654953374  0.4999796273742163  0.4545406447687690
  0.3326204600550511  0.5000128957225491  0.4542351209649845
  0.6673771378898252  0.4999707260848706  0.4541943952284155
  0.0000071094286484  0.8332757913830621  0.4560354154049552
  0.3336369888001693  0.8332046777582978  0.4568211237074474
  0.6663676113371561  0.8331692528228652  0.4568296712413729
  0.1666360931432162  0.1668480230510165  0.7058509981238560
  0.4999861505402974  0.1664649258945685  0.7078382538391488
  0.8333624971325215  0.1668147253711614  0.7058855932184762
  0.1667169510363502  0.5000098153153193  0.7047227962806164
  0.4999938571131450  0.4999867733890666  0.7090503587898955
  0.8332745329163866  0.4999957280551522  0.7046742172891013
  0.1666685465128057  0.8331934262523470  0.7058698751129980
  0.4999644632196556  0.8335200703719616  0.7078142149812229
  0.8333563754706655  0.8331532264203177  0.7058448631967760
  0.0000942360625000  0.0000055124496250  0.2062402427940449
  0.3335980615709419  1.0000002330552948  0.2069436711451434
  0.6663637931948563  0.9999896337286648  0.2069026053258858
  0.0000285740809685  0.3331688795667055  0.2053804901023248
  0.3332643665180741  0.3331619465495835  0.2057690763849427
  0.6666769386124402  0.3331353731235666  0.2056753124648960
  0.9999322495201922  0.6668540792104196  0.2053363306838749
  0.3333954496086211  0.6668612810567986  0.2056762266632715
  0.6666641721719379  0.6668392408959716  0.2057002376036208
  0.4999938808162465  0.4999758212690280  0.5001256588621062
 
  0.00000000E+00  0.00000000E+00  0.00000000E+00
  0.00000000E+00  0.00000000E+00  0.00000000E+00
  0.00000000E+00  0.00000000E+00  0.00000000E+00
  0.00000000E+00  0.00000000E+00  0.00000000E+00
  0.00000000E+00  0.00000000E+00  0.00000000E+00
  0.00000000E+00  0.00000000E+00  0.00000000E+00
  0.00000000E+00  0.00000000E+00  0.00000000E+00
  0.00000000E+00  0.00000000E+00  0.00000000E+00
  0.00000000E+00  0.00000000E+00  0.00000000E+00
  0.00000000E+00  0.00000000E+00  0.00000000E+00
  0.00000000E+00  0.00000000E+00  0.00000000E+00
  0.00000000E+00  0.00000000E+00  0.00000000E+00
  0.00000000E+00  0.00000000E+00  0.00000000E+00
  0.00000000E+00  0.00000000E+00  0.00000000E+00
  0.00000000E+00  0.00000000E+00  0.00000000E+00
  0.00000000E+00  0.00000000E+00  0.00000000E+00
  0.00000000E+00  0.00000000E+00  0.00000000E+00
  0.00000000E+00  0.00000000E+00  0.00000000E+00
  0.00000000E+00  0.00000000E+00  0.00000000E+00
  0.00000000E+00  0.00000000E+00  0.00000000E+00
  0.00000000E+00  0.00000000E+00  0.00000000E+00
  0.00000000E+00  0.00000000E+00  0.00000000E+00
  0.00000000E+00  0.00000000E+00  0.00000000E+00
  0.00000000E+00  0.00000000E+00  0.00000000E+00
  0.00000000E+00  0.00000000E+00  0.00000000E+00
  0.00000000E+00  0.00000000E+00  0.00000000E+00
  0.00000000E+00  0.00000000E+00  0.00000000E+00
  0.00000000E+00  0.00000000E+00  0.00000000E+00
  0.00000000E+00  0.00000000E+00  0.00000000E+00
  0.00000000E+00  0.00000000E+00  0.00000000E+00
  0.00000000E+00  0.00000000E+00  0.00000000E+00
  0.00000000E+00  0.00000000E+00  0.00000000E+00
  0.00000000E+00  0.00000000E+00  0.00000000E+00
  0.00000000E+00  0.00000000E+00  0.00000000E+00
  0.00000000E+00  0.00000000E+00  0.00000000E+00
  0.00000000E+00  0.00000000E+00  0.00000000E+00
  0.00000000E+00  0.00000000E+00  0.00000000E+00
  0.00000000E+00  0.00000000E+00  0.00000000E+00
  0.00000000E+00  0.00000000E+00  0.00000000E+00
  0.00000000E+00  0.00000000E+00  0.00000000E+00
  0.00000000E+00  0.00000000E+00  0.00000000E+00
  0.00000000E+00  0.00000000E+00  0.00000000E+00
  0.00000000E+00  0.00000000E+00  0.00000000E+00
  0.00000000E+00  0.00000000E+00  0.00000000E+00
  0.00000000E+00  0.00000000E+00  0.00000000E+00
  0.00000000E+00  0.00000000E+00  0.00000000E+00
  0.00000000E+00  0.00000000E+00  0.00000000E+00
  0.00000000E+00  0.00000000E+00  0.00000000E+00
  0.00000000E+00  0.00000000E+00  0.00000000E+00
  0.00000000E+00  0.00000000E+00  0.00000000E+00
  0.00000000E+00  0.00000000E+00  0.00000000E+00
  0.00000000E+00  0.00000000E+00  0.00000000E+00
  0.00000000E+00  0.00000000E+00  0.00000000E+00
  0.00000000E+00  0.00000000E+00  0.00000000E+00
  0.00000000E+00  0.00000000E+00  0.00000000E+00
  0.00000000E+00  0.00000000E+00  0.00000000E+00
  0.00000000E+00  0.00000000E+00  0.00000000E+00
  0.00000000E+00  0.00000000E+00  0.00000000E+00
  0.00000000E+00  0.00000000E+00  0.00000000E+00
  0.00000000E+00  0.00000000E+00  0.00000000E+00
  0.00000000E+00  0.00000000E+00  0.00000000E+00
  0.00000000E+00  0.00000000E+00  0.00000000E+00
  0.00000000E+00  0.00000000E+00  0.00000000E+00
  0.00000000E+00  0.00000000E+00  0.00000000E+00
  0.00000000E+00  0.00000000E+00  0.00000000E+00
  0.00000000E+00  0.00000000E+00  0.00000000E+00
  0.00000000E+00  0.00000000E+00  0.00000000E+00
  0.00000000E+00  0.00000000E+00  0.00000000E+00
  0.00000000E+00  0.00000000E+00  0.00000000E+00
  0.00000000E+00  0.00000000E+00  0.00000000E+00
  0.00000000E+00  0.00000000E+00  0.00000000E+00
  0.00000000E+00  0.00000000E+00  0.00000000E+00
  0.00000000E+00  0.00000000E+00  0.00000000E+00
  0.00000000E+00  0.00000000E+00  0.00000000E+00
  0.00000000E+00  0.00000000E+00  0.00000000E+00
  0.00000000E+00  0.00000000E+00  0.00000000E+00
  0.00000000E+00  0.00000000E+00  0.00000000E+00
  0.00000000E+00  0.00000000E+00  0.00000000E+00
  0.00000000E+00  0.00000000E+00  0.00000000E+00
  0.00000000E+00  0.00000000E+00  0.00000000E+00
  0.00000000E+00  0.00000000E+00  0.00000000E+00
  0.00000000E+00  0.00000000E+00  0.00000000E+00
  0.00000000E+00  0.00000000E+00  0.00000000E+00
  0.00000000E+00  0.00000000E+00  0.00000000E+00
  0.00000000E+00  0.00000000E+00  0.00000000E+00
  0.00000000E+00  0.00000000E+00  0.00000000E+00
  0.00000000E+00  0.00000000E+00  0.00000000E+00
  0.00000000E+00  0.00000000E+00  0.00000000E+00
  0.00000000E+00  0.00000000E+00  0.00000000E+00
  0.00000000E+00  0.00000000E+00  0.00000000E+00
  0.00000000E+00  0.00000000E+00  0.00000000E+00
  0.00000000E+00  0.00000000E+00  0.00000000E+00
  0.00000000E+00  0.00000000E+00  0.00000000E+00
  0.00000000E+00  0.00000000E+00  0.00000000E+00
  0.00000000E+00  0.00000000E+00  0.00000000E+00
  0.00000000E+00  0.00000000E+00  0.00000000E+00
  0.00000000E+00  0.00000000E+00  0.00000000E+00
  0.00000000E+00  0.00000000E+00  0.00000000E+00
  0.00000000E+00  0.00000000E+00  0.00000000E+00
  0.00000000E+00  0.00000000E+00  0.00000000E+00
  0.00000000E+00  0.00000000E+00  0.00000000E+00
  0.00000000E+00  0.00000000E+00  0.00000000E+00
  0.00000000E+00  0.00000000E+00  0.00000000E+00
  0.00000000E+00  0.00000000E+00  0.00000000E+00
  0.00000000E+00  0.00000000E+00  0.00000000E+00
  0.00000000E+00  0.00000000E+00  0.00000000E+00
  0.00000000E+00  0.00000000E+00  0.00000000E+00
  0.00000000E+00  0.00000000E+00  0.00000000E+00
