CIF file                                
   1.00000000000000     
    11.3519997597000071    0.0000000000000000    0.0000000000000000
     0.0000000000000000   11.3519997597000071    0.0000000000000000
     0.0000000000000000    0.0000000000000000    9.6265001297000055
   Ti   O    Ta
    35    72     1
Direct
  0.1664177335546353  0.0000124731234094  0.7497147461984884
  0.4999992902481349  0.9999706871364133  0.7535606948254560
  0.8335803186743410  0.9999728297196956  0.7497196380699838
  0.1662092578791990  0.3330415461567179  0.7493167356843381
  0.5000068686262030  0.3300100178091331  0.7566575158072729
  0.8337928483638212  0.3329976351190099  0.7493198161235629
  0.1662215986989541  0.6669929471396511  0.7493039499749197
  0.5000164885605248  0.6699362786103977  0.7566066580489247
  0.8338028849654644  0.6669505164589601  0.7493000737967586
  0.9999973310596514  0.1664163155181380  0.2502578060425031
  0.3330223228015046  0.1662450505191622  0.2506833140752621
  0.6669706460914098  0.1662113905139145  0.2506789977667143
  0.9999778104208222  0.5000109397575548  0.2464423018189101
  0.3300743423832437  0.5000438521620223  0.2434230967305724
  0.6698794048047374  0.5000157292419507  0.2434066479864866
  0.0000074091474445  0.8335931012582314  0.2502425842364260
  0.3330331961675907  0.8338250533185187  0.2506623483919607
  0.6669851000591757  0.8337956709145400  0.2506719553406051
  0.0000024881833974  0.0000061084316984  0.9999790630432019
  0.3323297198858292  0.0000282565739127  0.0001515456877752
  0.6676720885933076  1.0000032524623843  0.0001527427538883
  1.0000006888364297  0.3323381760606660  0.9998500518478137
  0.3316734271404744  0.3317099345039071  0.0000195572924491
  0.6683298008619483  0.3316935915940001  0.0000342579612096
  0.0000121174390955  0.6676693165668649  0.9998288978263945
  0.3316897856202572  0.6683362302818254 -0.0000055656144306
  0.6683367500138861  0.6683164140496178  0.9999967603253771
  0.1664366787724256  0.1664573751496450  0.4999901340429606
  0.4999989633052326  0.1640265857179715  0.4995870121501096
  0.8335565592225026  0.1664086873863257  0.4999878572702010
  0.1640476141910236  0.5000152075777181  0.5004030048504009
  0.8358900936328294  0.4999670400772091  0.5004000816360583
  0.1664484970105430  0.8335782387470763  0.4999730396749520
  0.5000083023436758  0.8358752418207562  0.4995690908578030
  0.8335720754966679  0.8335330065132359  0.4999798628246730
  0.0000029963611064 -0.0000033771286276  0.7933563438299794
  0.3332561028782031  0.9999978447993871  0.7945243908629167
  0.6667519918757355  0.9999774235547259  0.7945249863153269
  0.9999998451015371  0.3333640730616819  0.7927554222275875
  0.3332465372525810  0.3329992831693244  0.7942859714358752
  0.6667591062497346  0.3329831769232016  0.7942954978265743
  0.0000083310601315  0.6666290925194452  0.7927427663593460
  0.3332524617560445  0.6670023125816928  0.7942710436828595
  0.6667646649301920  0.6669833068861366  0.7942653367689452
  0.1667111249487593  0.1669329649187056  0.2940199212963223
  0.4999979989909806  0.1670612778218422  0.2945279119856689
  0.8332848422915051  0.1669191557244045  0.2940193185895520
  0.1663694394320443  0.5000373953319505  0.2926396675073608
  0.4999818831051401  0.4999981371323108  0.2910089702990550
  0.8336005601827757  0.5000137025109110  0.2926394714816795
  0.1667203446496580  0.8330945370607450  0.2940077904831169
  0.5000056565928592  0.8329511305035506  0.2945159059508317
  0.8332924722117685  0.8330850386405688  0.2940094860909414
  0.0000033834557517  0.1664045520981340  0.0439698562580780
  0.3327974374549028  0.1662799247429334  0.0441617620145073
  0.6672137183688329  0.1662587863935515  0.0441718312442791
  0.0000015430837276  0.5000112530243483  0.0426536038946824
  0.3322683682368012  0.5000220869916000  0.0416626757590037
  0.6677256339655256  0.5000058996763186  0.0416700386684413
  0.0000098508070267  0.8336098566536658  0.0439610468529560
  0.3328043800529361  0.8337617439928211  0.0441524052674417
  0.6672225862853421  0.8337442593590901  0.0441568302396108
  0.1669705326561345  0.0000113567160078  0.5434531443978943
  0.4999998250905842  0.9999711954584513  0.5446284811925236
  0.8330310241398087  0.9999818046569808  0.5434543043424327
  0.1669808519183907  0.3336778190712545  0.5433132005124418
  0.4999919395407900  0.3326614317939697  0.5457783723893020
  0.8330036296385548  0.3336489337919125  0.5433155267237944
  0.1669888385062511  0.6663414991239109  0.5433029304474583
  0.4999908447191039  0.6672713215699184  0.5457622938738915
  0.8330123225971979  0.6663140751035587  0.5432992683165576
  0.1663988594897766  0.0000264550457150  0.9560028726776716
  0.5000041046869249  0.0000074201807150  0.9573469803454767
  0.8336071854720235  0.0000074576559595  0.9560046403691976
  0.1662596832976207  0.3328375250567963  0.9558434566904623
  0.5000012413511170  0.3322534498780786  0.9583949121562728
  0.8337427629617077  0.3328188336898019  0.9558522550588887
  0.1662626421441507  0.6672240273061985  0.9558282233419884
  0.5000116167479122  0.6677613706262217  0.9583606354548373
  0.8337520564544408  0.6672079557066132  0.9558221771140086
  0.9999981771481107  0.1669373937968904  0.4565143106490067
  0.3336680680834527  0.1669980517717881  0.4566834595577418
  0.6663280318795456  0.1669793707617612  0.4566840196548275
  0.9999827700810445  0.4999923328445963  0.4553489766159874
  0.3326929205605987  0.4999874456006910  0.4542998623804819
  0.6672627292719164  0.4999787848298099  0.4542957902575764
  0.0000083118445297  0.8330543424140385  0.4565030463033627
  0.3336740603491354  0.8330033422922009  0.4566696598076925
  0.6663371931972013  0.8329798907880518  0.4566762175849468
  0.1669201032378478  0.1667227711300753  0.7059602895702192
  0.5000053791511375  0.1663425417736628  0.7073774414883096
  0.8330859309123271  0.1666932188174545  0.7059623274052380
  0.1670597614610234  0.5000098816772247  0.7054689285157941
  0.4999991323293909  0.4999744820232648  0.7091169375522358
  0.8329395721470497  0.4999823319387209  0.7054680890976800
  0.1669285838071631  0.8332987106462743  0.7059513973999221
  0.5000180570809883  0.8336140970817474  0.7073616308888321
  0.8330919273823145  0.8332701756132608  0.7059502004910284
  0.0000024509980673  0.0000066318850099  0.2066316608307886
  0.3333670335892300  0.0000219067341311  0.2072386697199881
  0.6666297488443816  1.0000002121771567  0.2072419816750641
  0.9999991062953465  0.3332585120749696  0.2054736712781201
  0.3329936884121202  0.3332674585564971  0.2057393470316646
  0.6669900194196862  0.3332501103017748  0.2057477733297605
  0.9999923761636746  0.6667557966885966  0.2054620726976680
  0.3330143273539822  0.6667762521070915  0.2057294532825804
  0.6669881263451795  0.6667589863055270  0.2057288591846925
  0.4999586866032569  0.4999314979989999  0.5001137218010023
 
  0.00000000E+00  0.00000000E+00  0.00000000E+00
  0.00000000E+00  0.00000000E+00  0.00000000E+00
  0.00000000E+00  0.00000000E+00  0.00000000E+00
  0.00000000E+00  0.00000000E+00  0.00000000E+00
  0.00000000E+00  0.00000000E+00  0.00000000E+00
  0.00000000E+00  0.00000000E+00  0.00000000E+00
  0.00000000E+00  0.00000000E+00  0.00000000E+00
  0.00000000E+00  0.00000000E+00  0.00000000E+00
  0.00000000E+00  0.00000000E+00  0.00000000E+00
  0.00000000E+00  0.00000000E+00  0.00000000E+00
  0.00000000E+00  0.00000000E+00  0.00000000E+00
  0.00000000E+00  0.00000000E+00  0.00000000E+00
  0.00000000E+00  0.00000000E+00  0.00000000E+00
  0.00000000E+00  0.00000000E+00  0.00000000E+00
  0.00000000E+00  0.00000000E+00  0.00000000E+00
  0.00000000E+00  0.00000000E+00  0.00000000E+00
  0.00000000E+00  0.00000000E+00  0.00000000E+00
  0.00000000E+00  0.00000000E+00  0.00000000E+00
  0.00000000E+00  0.00000000E+00  0.00000000E+00
  0.00000000E+00  0.00000000E+00  0.00000000E+00
  0.00000000E+00  0.00000000E+00  0.00000000E+00
  0.00000000E+00  0.00000000E+00  0.00000000E+00
  0.00000000E+00  0.00000000E+00  0.00000000E+00
  0.00000000E+00  0.00000000E+00  0.00000000E+00
  0.00000000E+00  0.00000000E+00  0.00000000E+00
  0.00000000E+00  0.00000000E+00  0.00000000E+00
  0.00000000E+00  0.00000000E+00  0.00000000E+00
  0.00000000E+00  0.00000000E+00  0.00000000E+00
  0.00000000E+00  0.00000000E+00  0.00000000E+00
  0.00000000E+00  0.00000000E+00  0.00000000E+00
  0.00000000E+00  0.00000000E+00  0.00000000E+00
  0.00000000E+00  0.00000000E+00  0.00000000E+00
  0.00000000E+00  0.00000000E+00  0.00000000E+00
  0.00000000E+00  0.00000000E+00  0.00000000E+00
  0.00000000E+00  0.00000000E+00  0.00000000E+00
  0.00000000E+00  0.00000000E+00  0.00000000E+00
  0.00000000E+00  0.00000000E+00  0.00000000E+00
  0.00000000E+00  0.00000000E+00  0.00000000E+00
  0.00000000E+00  0.00000000E+00  0.00000000E+00
  0.00000000E+00  0.00000000E+00  0.00000000E+00
  0.00000000E+00  0.00000000E+00  0.00000000E+00
  0.00000000E+00  0.00000000E+00  0.00000000E+00
  0.00000000E+00  0.00000000E+00  0.00000000E+00
  0.00000000E+00  0.00000000E+00  0.00000000E+00
  0.00000000E+00  0.00000000E+00  0.00000000E+00
  0.00000000E+00  0.00000000E+00  0.00000000E+00
  0.00000000E+00  0.00000000E+00  0.00000000E+00
  0.00000000E+00  0.00000000E+00  0.00000000E+00
  0.00000000E+00  0.00000000E+00  0.00000000E+00
  0.00000000E+00  0.00000000E+00  0.00000000E+00
  0.00000000E+00  0.00000000E+00  0.00000000E+00
  0.00000000E+00  0.00000000E+00  0.00000000E+00
  0.00000000E+00  0.00000000E+00  0.00000000E+00
  0.00000000E+00  0.00000000E+00  0.00000000E+00
  0.00000000E+00  0.00000000E+00  0.00000000E+00
  0.00000000E+00  0.00000000E+00  0.00000000E+00
  0.00000000E+00  0.00000000E+00  0.00000000E+00
  0.00000000E+00  0.00000000E+00  0.00000000E+00
  0.00000000E+00  0.00000000E+00  0.00000000E+00
  0.00000000E+00  0.00000000E+00  0.00000000E+00
  0.00000000E+00  0.00000000E+00  0.00000000E+00
  0.00000000E+00  0.00000000E+00  0.00000000E+00
  0.00000000E+00  0.00000000E+00  0.00000000E+00
  0.00000000E+00  0.00000000E+00  0.00000000E+00
  0.00000000E+00  0.00000000E+00  0.00000000E+00
  0.00000000E+00  0.00000000E+00  0.00000000E+00
  0.00000000E+00  0.00000000E+00  0.00000000E+00
  0.00000000E+00  0.00000000E+00  0.00000000E+00
  0.00000000E+00  0.00000000E+00  0.00000000E+00
  0.00000000E+00  0.00000000E+00  0.00000000E+00
  0.00000000E+00  0.00000000E+00  0.00000000E+00
  0.00000000E+00  0.00000000E+00  0.00000000E+00
  0.00000000E+00  0.00000000E+00  0.00000000E+00
  0.00000000E+00  0.00000000E+00  0.00000000E+00
  0.00000000E+00  0.00000000E+00  0.00000000E+00
  0.00000000E+00  0.00000000E+00  0.00000000E+00
  0.00000000E+00  0.00000000E+00  0.00000000E+00
  0.00000000E+00  0.00000000E+00  0.00000000E+00
  0.00000000E+00  0.00000000E+00  0.00000000E+00
  0.00000000E+00  0.00000000E+00  0.00000000E+00
  0.00000000E+00  0.00000000E+00  0.00000000E+00
  0.00000000E+00  0.00000000E+00  0.00000000E+00
  0.00000000E+00  0.00000000E+00  0.00000000E+00
  0.00000000E+00  0.00000000E+00  0.00000000E+00
  0.00000000E+00  0.00000000E+00  0.00000000E+00
  0.00000000E+00  0.00000000E+00  0.00000000E+00
  0.00000000E+00  0.00000000E+00  0.00000000E+00
  0.00000000E+00  0.00000000E+00  0.00000000E+00
  0.00000000E+00  0.00000000E+00  0.00000000E+00
  0.00000000E+00  0.00000000E+00  0.00000000E+00
  0.00000000E+00  0.00000000E+00  0.00000000E+00
  0.00000000E+00  0.00000000E+00  0.00000000E+00
  0.00000000E+00  0.00000000E+00  0.00000000E+00
  0.00000000E+00  0.00000000E+00  0.00000000E+00
  0.00000000E+00  0.00000000E+00  0.00000000E+00
  0.00000000E+00  0.00000000E+00  0.00000000E+00
  0.00000000E+00  0.00000000E+00  0.00000000E+00
  0.00000000E+00  0.00000000E+00  0.00000000E+00
  0.00000000E+00  0.00000000E+00  0.00000000E+00
  0.00000000E+00  0.00000000E+00  0.00000000E+00
  0.00000000E+00  0.00000000E+00  0.00000000E+00
  0.00000000E+00  0.00000000E+00  0.00000000E+00
  0.00000000E+00  0.00000000E+00  0.00000000E+00
  0.00000000E+00  0.00000000E+00  0.00000000E+00
  0.00000000E+00  0.00000000E+00  0.00000000E+00
  0.00000000E+00  0.00000000E+00  0.00000000E+00
  0.00000000E+00  0.00000000E+00  0.00000000E+00
  0.00000000E+00  0.00000000E+00  0.00000000E+00
