CIF file                                
   1.00000000000000     
    11.3519997597000071    0.0000000000000000    0.0000000000000000
     0.0000000000000000   11.3519997597000071    0.0000000000000000
     0.0000000000000000    0.0000000000000000    9.6265001297000055
   Ti   O    Ta
    35    72     1
Direct
  0.1664370796080732  0.0000227126754445  0.7497348939899716
  0.5000245355389428  0.9999760009077318  0.7536888125618599
  0.8336042243131163  0.9999526121080448  0.7497474540954451
  0.1662013322824395  0.3330882486520517  0.7492356511970464
  0.5000089764885390  0.3300938677661991  0.7565654165952147
  0.8337938885525840  0.3330352016615864  0.7492230349520933
  0.1662240532045831  0.6669532656004568  0.7492044028817945
  0.5000098989148325  0.6698560276344288  0.7565553475205840
  0.8338038255272224  0.6668921688346576  0.7492056099246032
  0.9999903759715812  0.1664362508702987  0.2502647737653360
  0.3330645407788854  0.1662271556987818  0.2507842102690347
  0.6669266344286305  0.1661984656186094  0.2507778235473986
  0.9999792850567268  0.5000514481617326  0.2463119563223569
  0.3301160307614980  0.5000212223423542  0.2434275352834566
  0.6698333299745528  0.5000033793107144  0.2434593524744469
  0.0000052453115972  0.8336249490765651  0.2502331014416861
  0.3330748564302650  0.8338149304632458  0.2507662305305784
  0.6669331952718116  0.8337836295042488  0.2507750649940675
  0.0000276579051208  0.0000390280632651  0.9999858775125653
  0.3323151925130647  0.0000288795933935  0.0001891955254113
  0.6677261728777915  0.9999889694688771  0.0001918181363290
  0.9999947488104040  0.3323203379424918  0.9998316458072404
  0.3316446123566282  0.3316683531387912  0.0000005701099822
  0.6683533018047657  0.3316430510796842  0.0000195134229004
  0.0000127190572404  0.6677346669858277  0.9997869090436251
  0.3316558225609800  0.6683776674606148  0.9999909604704373
  0.6683673223701760  0.6683423215117007  0.9999869752458630
  0.1664412844146280  0.1664779209022029  0.4999979053292630
  0.4999985021980436  0.1640840851124921  0.4998379587576621
  0.8335438987669208  0.1663968257298732  0.5000129537958961
  0.1640947293266219  0.5000200355021605  0.5001651933185657
  0.8357988355938805  0.4999573457072453  0.5001537161784148
  0.1664565683057343  0.8335826955370762  0.4999858502840080
  0.5000108517929258  0.8357922161476744  0.4998332136253187
  0.8335693073860222  0.8335108203730850  0.4999812739404748
  0.0000189310833185 -0.0000017637002351  0.7936259462439076
  0.3332562737531086  0.0000070161550043  0.7949034418144032
  0.6667799732868275  0.9999760027844152  0.7948943801372783
  0.9999975122332262  0.3333683148967607  0.7929898620899113
  0.3332335208029307  0.3330323356735045  0.7945911322322784
  0.6667643024664111  0.3329961498486324  0.7945903077634807
  0.0000078381938507  0.6666596243712525  0.7929574483672446
  0.3332434579375553  0.6669781044522088  0.7945677897932530
  0.6667691318233784  0.6669668693187808  0.7945701840470923
  0.1667201060970458  0.1668822010250184  0.2943382553311943
  0.4999971791129703  0.1669491964018081  0.2949467083795884
  0.8332722557610506  0.1668476991057558  0.2943432604049673
  0.1663387086412297  0.5000580761373488  0.2926999641245529
  0.4999780002202989  0.4999833223456416  0.2909597284120635
  0.8336251271391719  0.5000035887752121  0.2926983270668637
  0.1667279860208281  0.8331234707762546  0.2943213358839911
  0.5000041784954399  0.8330471359684741  0.2949376967434548
  0.8332808109807327  0.8331367874126553  0.2943248208345325
  0.9999775220549838  0.1664178853450560  0.0442664020426636
  0.3326825001689562  0.1662644643311256  0.0445304085474860
  0.6673661718112976  0.1662418906296284  0.0445226930529913
  0.0000148282141491  0.5000270240167575  0.0428715624338312
  0.3320484760994241  0.5000148563447426  0.0419151862563893
  0.6679349351995824  0.5000006210283848  0.0419279547455395
  0.0000252846527733  0.8336309561729099  0.0442385004677638
  0.3326487699145106  0.8337677775770376  0.0444986484314144
  0.6673703455170865  0.8337419324743168  0.0445154438573733
  0.1669912917262997  0.0000205421907780  0.5437567384056090
  0.5000237675776954  0.9999693693025871  0.5451395338790214
  0.8329962575979664  0.9999750509855376  0.5437557147369102
  0.1670180168074523  0.3336899348433660  0.5435205868979526
  0.4999908430215132  0.3325400837302047  0.5460997576955545
  0.8329500601794694  0.3336479873908875  0.5435274163997840
  0.1670291187976212  0.6663437811340720  0.5435106256874274
  0.4999777375988418  0.6673863530784079  0.5460896370507495
  0.8329720287383254  0.6663050469354150  0.5435014226015825
  0.1664065856938319  0.0000560609236976  0.9557319878550692
  0.5000159070628104  0.9999950477928617  0.9571431080279541
  0.8336243969400222  0.9999976714318298  0.9557320413737176
  0.1662461026475350  0.3326604293960606  0.9554987628702009
  0.5000012834975500  0.3320517709261199  0.9580887039814981
  0.8337493538891311  0.3326874632788184  0.9554989955427313
  0.1662569760166596  0.6673448380646154  0.9554642236473390
  0.5000087165965441  0.6679614394639819  0.9580797149940008
  0.8337580945715446  0.6673259422838296  0.9554626905113548
  0.9999941714203174  0.1669776491683192  0.4562373604664794
  0.3336759843749483  0.1670512495745809  0.4564920194295047
  0.6663191737411113  0.1670291163184449  0.4564861930457163
  0.9999669921886828  0.4999974143587386  0.4548717420401650
  0.3325519707970687  0.4999854309784261  0.4539410880965795
  0.6673829903901268  0.4999757289523414  0.4539400573055978
  0.0000079977636285  0.8330471596995231  0.4562224764853861
  0.3336809271104337  0.8329766219830317  0.4564727928355050
  0.6663290963974220  0.8329235070673501  0.4564807887294677
  0.1668643240307597  0.1667401560354687  0.7056603134227568
  0.5000032920420027  0.1663267249584852  0.7073126744785930
  0.8331529406115069  0.1666980814265896  0.7056705609380814
  0.1669486388087117  0.5000134422859650  0.7050599795545178
  0.4999981768197351  0.4999755040484556  0.7090894073071291
  0.8330339605709044  0.4999824332714557  0.7050537355195382
  0.1668919356964976  0.8332961476472044  0.7056523532291650
  0.5000040748742648  0.8336319347624627  0.7073008852831855
  0.8331459731257967  0.8332553674326678  0.7056491639683770
  0.0000180689106358  0.0000226102338479  0.2063492420069061
  0.3333570269345433  0.0000116466618120  0.2070272066162853
  0.6666384915096001  0.9999918044178809  0.2070256405053445
  0.0000040933713714  0.3332630691114651  0.2051189309110548
  0.3329999894462273  0.3332514078665370  0.2054311913109886
  0.6669714054572208  0.3332310988581532  0.2054328462320089
  0.9999643433259211  0.6667986043369003  0.2050961589414237
  0.3330542399611136  0.6667787908776756  0.2054042162219601
  0.6669615260289627  0.6667603453467461  0.2054164307812327
  0.4999346911908906  0.4999298423543341  0.5000432898223688
 
  0.00000000E+00  0.00000000E+00  0.00000000E+00
  0.00000000E+00  0.00000000E+00  0.00000000E+00
  0.00000000E+00  0.00000000E+00  0.00000000E+00
  0.00000000E+00  0.00000000E+00  0.00000000E+00
  0.00000000E+00  0.00000000E+00  0.00000000E+00
  0.00000000E+00  0.00000000E+00  0.00000000E+00
  0.00000000E+00  0.00000000E+00  0.00000000E+00
  0.00000000E+00  0.00000000E+00  0.00000000E+00
  0.00000000E+00  0.00000000E+00  0.00000000E+00
  0.00000000E+00  0.00000000E+00  0.00000000E+00
  0.00000000E+00  0.00000000E+00  0.00000000E+00
  0.00000000E+00  0.00000000E+00  0.00000000E+00
  0.00000000E+00  0.00000000E+00  0.00000000E+00
  0.00000000E+00  0.00000000E+00  0.00000000E+00
  0.00000000E+00  0.00000000E+00  0.00000000E+00
  0.00000000E+00  0.00000000E+00  0.00000000E+00
  0.00000000E+00  0.00000000E+00  0.00000000E+00
  0.00000000E+00  0.00000000E+00  0.00000000E+00
  0.00000000E+00  0.00000000E+00  0.00000000E+00
  0.00000000E+00  0.00000000E+00  0.00000000E+00
  0.00000000E+00  0.00000000E+00  0.00000000E+00
  0.00000000E+00  0.00000000E+00  0.00000000E+00
  0.00000000E+00  0.00000000E+00  0.00000000E+00
  0.00000000E+00  0.00000000E+00  0.00000000E+00
  0.00000000E+00  0.00000000E+00  0.00000000E+00
  0.00000000E+00  0.00000000E+00  0.00000000E+00
  0.00000000E+00  0.00000000E+00  0.00000000E+00
  0.00000000E+00  0.00000000E+00  0.00000000E+00
  0.00000000E+00  0.00000000E+00  0.00000000E+00
  0.00000000E+00  0.00000000E+00  0.00000000E+00
  0.00000000E+00  0.00000000E+00  0.00000000E+00
  0.00000000E+00  0.00000000E+00  0.00000000E+00
  0.00000000E+00  0.00000000E+00  0.00000000E+00
  0.00000000E+00  0.00000000E+00  0.00000000E+00
  0.00000000E+00  0.00000000E+00  0.00000000E+00
  0.00000000E+00  0.00000000E+00  0.00000000E+00
  0.00000000E+00  0.00000000E+00  0.00000000E+00
  0.00000000E+00  0.00000000E+00  0.00000000E+00
  0.00000000E+00  0.00000000E+00  0.00000000E+00
  0.00000000E+00  0.00000000E+00  0.00000000E+00
  0.00000000E+00  0.00000000E+00  0.00000000E+00
  0.00000000E+00  0.00000000E+00  0.00000000E+00
  0.00000000E+00  0.00000000E+00  0.00000000E+00
  0.00000000E+00  0.00000000E+00  0.00000000E+00
  0.00000000E+00  0.00000000E+00  0.00000000E+00
  0.00000000E+00  0.00000000E+00  0.00000000E+00
  0.00000000E+00  0.00000000E+00  0.00000000E+00
  0.00000000E+00  0.00000000E+00  0.00000000E+00
  0.00000000E+00  0.00000000E+00  0.00000000E+00
  0.00000000E+00  0.00000000E+00  0.00000000E+00
  0.00000000E+00  0.00000000E+00  0.00000000E+00
  0.00000000E+00  0.00000000E+00  0.00000000E+00
  0.00000000E+00  0.00000000E+00  0.00000000E+00
  0.00000000E+00  0.00000000E+00  0.00000000E+00
  0.00000000E+00  0.00000000E+00  0.00000000E+00
  0.00000000E+00  0.00000000E+00  0.00000000E+00
  0.00000000E+00  0.00000000E+00  0.00000000E+00
  0.00000000E+00  0.00000000E+00  0.00000000E+00
  0.00000000E+00  0.00000000E+00  0.00000000E+00
  0.00000000E+00  0.00000000E+00  0.00000000E+00
  0.00000000E+00  0.00000000E+00  0.00000000E+00
  0.00000000E+00  0.00000000E+00  0.00000000E+00
  0.00000000E+00  0.00000000E+00  0.00000000E+00
  0.00000000E+00  0.00000000E+00  0.00000000E+00
  0.00000000E+00  0.00000000E+00  0.00000000E+00
  0.00000000E+00  0.00000000E+00  0.00000000E+00
  0.00000000E+00  0.00000000E+00  0.00000000E+00
  0.00000000E+00  0.00000000E+00  0.00000000E+00
  0.00000000E+00  0.00000000E+00  0.00000000E+00
  0.00000000E+00  0.00000000E+00  0.00000000E+00
  0.00000000E+00  0.00000000E+00  0.00000000E+00
  0.00000000E+00  0.00000000E+00  0.00000000E+00
  0.00000000E+00  0.00000000E+00  0.00000000E+00
  0.00000000E+00  0.00000000E+00  0.00000000E+00
  0.00000000E+00  0.00000000E+00  0.00000000E+00
  0.00000000E+00  0.00000000E+00  0.00000000E+00
  0.00000000E+00  0.00000000E+00  0.00000000E+00
  0.00000000E+00  0.00000000E+00  0.00000000E+00
  0.00000000E+00  0.00000000E+00  0.00000000E+00
  0.00000000E+00  0.00000000E+00  0.00000000E+00
  0.00000000E+00  0.00000000E+00  0.00000000E+00
  0.00000000E+00  0.00000000E+00  0.00000000E+00
  0.00000000E+00  0.00000000E+00  0.00000000E+00
  0.00000000E+00  0.00000000E+00  0.00000000E+00
  0.00000000E+00  0.00000000E+00  0.00000000E+00
  0.00000000E+00  0.00000000E+00  0.00000000E+00
  0.00000000E+00  0.00000000E+00  0.00000000E+00
  0.00000000E+00  0.00000000E+00  0.00000000E+00
  0.00000000E+00  0.00000000E+00  0.00000000E+00
  0.00000000E+00  0.00000000E+00  0.00000000E+00
  0.00000000E+00  0.00000000E+00  0.00000000E+00
  0.00000000E+00  0.00000000E+00  0.00000000E+00
  0.00000000E+00  0.00000000E+00  0.00000000E+00
  0.00000000E+00  0.00000000E+00  0.00000000E+00
  0.00000000E+00  0.00000000E+00  0.00000000E+00
  0.00000000E+00  0.00000000E+00  0.00000000E+00
  0.00000000E+00  0.00000000E+00  0.00000000E+00
  0.00000000E+00  0.00000000E+00  0.00000000E+00
  0.00000000E+00  0.00000000E+00  0.00000000E+00
  0.00000000E+00  0.00000000E+00  0.00000000E+00
  0.00000000E+00  0.00000000E+00  0.00000000E+00
  0.00000000E+00  0.00000000E+00  0.00000000E+00
  0.00000000E+00  0.00000000E+00  0.00000000E+00
  0.00000000E+00  0.00000000E+00  0.00000000E+00
  0.00000000E+00  0.00000000E+00  0.00000000E+00
  0.00000000E+00  0.00000000E+00  0.00000000E+00
  0.00000000E+00  0.00000000E+00  0.00000000E+00
  0.00000000E+00  0.00000000E+00  0.00000000E+00
