CIF file                                
   1.00000000000000     
    11.3519997597000071    0.0000000000000000    0.0000000000000000
     0.0000000000000000   11.3519997597000071    0.0000000000000000
     0.0000000000000000    0.0000000000000000    9.6265001297000055
   Ti   O    N 
    36    72     1
Direct
  0.1633366398222603  0.9997647980341290  0.7494369779494963
  0.4938349763192037  0.9997565020002901  0.7489088064322996
  0.8324645612533628  0.9996569039499699  0.7511144129411255
  0.1627689144851683  0.3335454773497539  0.7472655380341079
  0.4896114453108412  0.3335612630863480  0.7453736869339014
  0.8358712488486684  0.3334473078380003  0.7435863499014750
  0.1631124671822043  0.6671714114017708  0.7495874868506691
  0.4937987566723926  0.6671257519325285  0.7490118345678859
  0.8322715590265125  0.6670103095802372  0.7509319495128447
  0.9972032108014633  0.1643073933379357  0.2507589614109282
  0.3277294249144654  0.1664368396064263  0.2488273575445448
  0.6584402239719703  0.1399839965493600  0.2593420250410088
  0.9970008201859987  0.5020668908893521  0.2507998768865470
  0.3275249760573397  0.5001275136420356  0.2487857606292076
  0.6582268382098566  0.5256788261587408  0.2583906923348019
  0.9975391261619792  0.8332426360298991  0.2485828287436547
  0.3293412175108950  0.8331682741192048  0.2498634528948443
  0.6629670763309300  0.8330393267115622  0.2571491087273374
  0.9975017577124859  0.0000356766330931  0.0004400095720595
  0.3291210278431195  0.9999521934678194  0.0005723129450742
  0.6626887809299460  0.9982579709311836  0.9903313711387701
  0.9977950014110862  0.3331671249650683  0.0006700023750222
  0.3281382490189129  0.3332283730660119  0.0002585330829866
  0.6620739855134050  0.3326461711617776  0.9747799832203998
  0.9973451647050426  0.6662572168797927  0.0005030412304757
  0.3291634583375165  0.6665651657333578  0.0004260708731196
  0.6628210187371746  0.6714067368985959  0.9900969677591023
  0.1635198200026731  0.1664935760336873  0.5010907027752014
  0.4937498326103080  0.1667402379110381  0.5019405732131620
  0.8328393975812596  0.1639943333458846  0.5018894957570524
  0.1634198506502056  0.5007386585098419  0.5010813644294073
  0.4937849786118365  0.5004686375191706  0.5017131793523316
  0.8324795864522659  0.5031334223988181  0.5015074442132986
  0.1626286970565657  0.8335541533584708  0.5001910353945906
  0.4932719499475489  0.8334973251211093  0.5010676884074928
  0.8321250689175025  0.8335476131756389  0.5012809696085411
  0.9971554916906290  0.9999293690515780  0.7947505820252231
  0.3298504390622892  0.9993810689489817  0.7938056530194857
  0.6634562406592053  0.0021871153918830  0.7919093172118234
  0.9981064911586505  0.3335115608073390  0.7918405429990441
  0.3282560792404571  0.3334898066358698  0.7921151876457522
  0.6630476958082684  0.3334173923383777  0.7828854755998229
  0.9970098429366743  0.6670145962023024  0.7947977307892496
  0.3297706387997896  0.6675462886023278  0.7938686407091258
  0.6634155994766798  0.6654543734839232  0.7914387445442198
  0.1635279013981918  0.1656680801943546  0.2939671572640031
  0.4973603347488077  0.1675589357429158  0.2938657989607598
  0.8305854635765482  0.1432469441325127  0.2983452593331350
  0.1634274565700140  0.5009779238681088  0.2940414103018402
  0.4971360714837421  0.4992741113611242  0.2938975807617704
  0.8304353798278296  0.5227095145670800  0.2980236439568715
  0.1639695987789619  0.8332844876833428  0.2940239419037162
  0.4958343468412365  0.8328539991516777  0.2970561554585702
  0.8293437043533801  0.8334786332154491  0.2930477942208266
  0.9959868003312533  0.1673743490302935  0.0459429189329350
  0.3295895928240513  0.1668249501230054  0.0437120240322329
  0.6627745627184055  0.1794764120593065  0.0616573925651195
  0.9959259033250685  0.4990766401142679  0.0458987017495174
  0.3297301512533259  0.4996752019033438  0.0436233966125189
  0.6621154345572560  0.4842809159328926  0.0625146049596103
  0.9925366054755835  0.8332466654972954  0.0418019730443443
  0.3319205356876543  0.8332956699314027  0.0441894516970877
  0.6661250549087587  0.8337264986512374  0.0309829475670028
  0.1628808135700929  0.0000619233553784  0.5439742794193256
  0.4966293405208382  0.9998030264840951  0.5436161905946688
  0.8314210008808302  0.9985707856758615  0.5467783601837422
  0.1647445763214934  0.3335160608531272  0.5436907870578951
  0.4958572545124607  0.3335177983577812  0.5409880629053182
  0.8294818067598272  0.3334408113489637  0.5371645742550486
  0.1628695900750215  0.6669218054820036  0.5440093352214919
  0.4964732115438438  0.6670797800706582  0.5437565173039518
  0.8313761825809206  0.6683086028184281  0.5465242863655790
  0.1636590415153473  0.9998296020544019  0.9563213635775458
  0.4970493093169047  0.0038084669244724  0.9547530112851901
  0.8292606868030437  0.0056896451260424  0.9575356053890194
  0.1630009072414211  0.3332345502156663  0.9556133310052090
  0.4954689407629412  0.3327062042764816  0.9505027792365101
  0.8310147191842088  0.3330457992963002  0.9492490103577086
  0.1635533178841715  0.6666322753483342  0.9563818804487658
  0.4971325239401605  0.6627266468903549  0.9548213940905443
  0.8290930043224242  0.6603984447891655  0.9573553762198505
  0.9975400042404149  0.1688940007423055  0.4570355768656513
  0.3301629341150162  0.1663867661054287  0.4551560366128129
  0.6633025877652149  0.1643070329629546  0.4585112735818372
  0.9974111014528315  0.4981242353793160  0.4570215919219237
  0.3300669512446435  0.5004708661362613  0.4552080741046134
  0.6631685084246209  0.5024522613260781  0.4582185738502082
  0.9964134704667007  0.8334624827854696  0.4546327254608913
  0.3292784355047614  0.8335057586358984  0.4575115127367994
  0.6639209686878803  0.8333729338101248  0.4558012407725383
  0.1638966246600915  0.1664070047739880  0.7057374219591457
  0.4948557344077284  0.1668378009890727  0.7051135446463090
  0.8318942258643055  0.1667379523425354  0.7055461901145726
  0.1637893512579236  0.5005409676531510  0.7057922669888183
  0.4948612524785334  0.5000692540405903  0.7052178915502413
  0.8317522004844491  0.5000894507973735  0.7054050000486393
  0.1632237424642068  0.8334733822975269  0.7057857525021121
  0.4973426043741392  0.8334962356658940  0.7075528652510148
  0.8303473420620259  0.8334355297632101  0.7089185629955929
  0.0017687464233800  0.9987106138258474  0.2045541625874405
  0.3312686324621319  0.0000784327774017  0.2058234427833094
  0.6511839451413706  0.9904906948065908  0.1987995516434697
  0.9964717329471391  0.3332700928312917  0.2091757773429594
  0.3308835624565487  0.3333096551620385  0.2052957217776451
  0.7813690037527597  0.3326482000772115  0.2200203388751529
  0.0014928200331875  0.6677794929824282  0.2046188565496541
  0.3310215332003197  0.6664349409890156  0.2056955341990044
  0.6525947576828099  0.6755703012007660  0.1982802045816172
  0.6885131382773911  0.3329472491552896  0.2689722822278653
 
  0.00000000E+00  0.00000000E+00  0.00000000E+00
  0.00000000E+00  0.00000000E+00  0.00000000E+00
  0.00000000E+00  0.00000000E+00  0.00000000E+00
  0.00000000E+00  0.00000000E+00  0.00000000E+00
  0.00000000E+00  0.00000000E+00  0.00000000E+00
  0.00000000E+00  0.00000000E+00  0.00000000E+00
  0.00000000E+00  0.00000000E+00  0.00000000E+00
  0.00000000E+00  0.00000000E+00  0.00000000E+00
  0.00000000E+00  0.00000000E+00  0.00000000E+00
  0.00000000E+00  0.00000000E+00  0.00000000E+00
  0.00000000E+00  0.00000000E+00  0.00000000E+00
  0.00000000E+00  0.00000000E+00  0.00000000E+00
  0.00000000E+00  0.00000000E+00  0.00000000E+00
  0.00000000E+00  0.00000000E+00  0.00000000E+00
  0.00000000E+00  0.00000000E+00  0.00000000E+00
  0.00000000E+00  0.00000000E+00  0.00000000E+00
  0.00000000E+00  0.00000000E+00  0.00000000E+00
  0.00000000E+00  0.00000000E+00  0.00000000E+00
  0.00000000E+00  0.00000000E+00  0.00000000E+00
  0.00000000E+00  0.00000000E+00  0.00000000E+00
  0.00000000E+00  0.00000000E+00  0.00000000E+00
  0.00000000E+00  0.00000000E+00  0.00000000E+00
  0.00000000E+00  0.00000000E+00  0.00000000E+00
  0.00000000E+00  0.00000000E+00  0.00000000E+00
  0.00000000E+00  0.00000000E+00  0.00000000E+00
  0.00000000E+00  0.00000000E+00  0.00000000E+00
  0.00000000E+00  0.00000000E+00  0.00000000E+00
  0.00000000E+00  0.00000000E+00  0.00000000E+00
  0.00000000E+00  0.00000000E+00  0.00000000E+00
  0.00000000E+00  0.00000000E+00  0.00000000E+00
  0.00000000E+00  0.00000000E+00  0.00000000E+00
  0.00000000E+00  0.00000000E+00  0.00000000E+00
  0.00000000E+00  0.00000000E+00  0.00000000E+00
  0.00000000E+00  0.00000000E+00  0.00000000E+00
  0.00000000E+00  0.00000000E+00  0.00000000E+00
  0.00000000E+00  0.00000000E+00  0.00000000E+00
  0.00000000E+00  0.00000000E+00  0.00000000E+00
  0.00000000E+00  0.00000000E+00  0.00000000E+00
  0.00000000E+00  0.00000000E+00  0.00000000E+00
  0.00000000E+00  0.00000000E+00  0.00000000E+00
  0.00000000E+00  0.00000000E+00  0.00000000E+00
  0.00000000E+00  0.00000000E+00  0.00000000E+00
  0.00000000E+00  0.00000000E+00  0.00000000E+00
  0.00000000E+00  0.00000000E+00  0.00000000E+00
  0.00000000E+00  0.00000000E+00  0.00000000E+00
  0.00000000E+00  0.00000000E+00  0.00000000E+00
  0.00000000E+00  0.00000000E+00  0.00000000E+00
  0.00000000E+00  0.00000000E+00  0.00000000E+00
  0.00000000E+00  0.00000000E+00  0.00000000E+00
  0.00000000E+00  0.00000000E+00  0.00000000E+00
  0.00000000E+00  0.00000000E+00  0.00000000E+00
  0.00000000E+00  0.00000000E+00  0.00000000E+00
  0.00000000E+00  0.00000000E+00  0.00000000E+00
  0.00000000E+00  0.00000000E+00  0.00000000E+00
  0.00000000E+00  0.00000000E+00  0.00000000E+00
  0.00000000E+00  0.00000000E+00  0.00000000E+00
  0.00000000E+00  0.00000000E+00  0.00000000E+00
  0.00000000E+00  0.00000000E+00  0.00000000E+00
  0.00000000E+00  0.00000000E+00  0.00000000E+00
  0.00000000E+00  0.00000000E+00  0.00000000E+00
  0.00000000E+00  0.00000000E+00  0.00000000E+00
  0.00000000E+00  0.00000000E+00  0.00000000E+00
  0.00000000E+00  0.00000000E+00  0.00000000E+00
  0.00000000E+00  0.00000000E+00  0.00000000E+00
  0.00000000E+00  0.00000000E+00  0.00000000E+00
  0.00000000E+00  0.00000000E+00  0.00000000E+00
  0.00000000E+00  0.00000000E+00  0.00000000E+00
  0.00000000E+00  0.00000000E+00  0.00000000E+00
  0.00000000E+00  0.00000000E+00  0.00000000E+00
  0.00000000E+00  0.00000000E+00  0.00000000E+00
  0.00000000E+00  0.00000000E+00  0.00000000E+00
  0.00000000E+00  0.00000000E+00  0.00000000E+00
  0.00000000E+00  0.00000000E+00  0.00000000E+00
  0.00000000E+00  0.00000000E+00  0.00000000E+00
  0.00000000E+00  0.00000000E+00  0.00000000E+00
  0.00000000E+00  0.00000000E+00  0.00000000E+00
  0.00000000E+00  0.00000000E+00  0.00000000E+00
  0.00000000E+00  0.00000000E+00  0.00000000E+00
  0.00000000E+00  0.00000000E+00  0.00000000E+00
  0.00000000E+00  0.00000000E+00  0.00000000E+00
  0.00000000E+00  0.00000000E+00  0.00000000E+00
  0.00000000E+00  0.00000000E+00  0.00000000E+00
  0.00000000E+00  0.00000000E+00  0.00000000E+00
  0.00000000E+00  0.00000000E+00  0.00000000E+00
  0.00000000E+00  0.00000000E+00  0.00000000E+00
  0.00000000E+00  0.00000000E+00  0.00000000E+00
  0.00000000E+00  0.00000000E+00  0.00000000E+00
  0.00000000E+00  0.00000000E+00  0.00000000E+00
  0.00000000E+00  0.00000000E+00  0.00000000E+00
  0.00000000E+00  0.00000000E+00  0.00000000E+00
  0.00000000E+00  0.00000000E+00  0.00000000E+00
  0.00000000E+00  0.00000000E+00  0.00000000E+00
  0.00000000E+00  0.00000000E+00  0.00000000E+00
  0.00000000E+00  0.00000000E+00  0.00000000E+00
  0.00000000E+00  0.00000000E+00  0.00000000E+00
  0.00000000E+00  0.00000000E+00  0.00000000E+00
  0.00000000E+00  0.00000000E+00  0.00000000E+00
  0.00000000E+00  0.00000000E+00  0.00000000E+00
  0.00000000E+00  0.00000000E+00  0.00000000E+00
  0.00000000E+00  0.00000000E+00  0.00000000E+00
  0.00000000E+00  0.00000000E+00  0.00000000E+00
  0.00000000E+00  0.00000000E+00  0.00000000E+00
  0.00000000E+00  0.00000000E+00  0.00000000E+00
  0.00000000E+00  0.00000000E+00  0.00000000E+00
  0.00000000E+00  0.00000000E+00  0.00000000E+00
  0.00000000E+00  0.00000000E+00  0.00000000E+00
  0.00000000E+00  0.00000000E+00  0.00000000E+00
  0.00000000E+00  0.00000000E+00  0.00000000E+00
  0.00000000E+00  0.00000000E+00  0.00000000E+00
