CIF file                                
   1.00000000000000     
    11.3519997597000071    0.0000000000000000    0.0000000000000000
     0.0000000000000000   11.3519997597000071    0.0000000000000000
     0.0000000000000000    0.0000000000000000    9.6265001297000055
   Ti   O    N 
    36    72     1
Direct
  0.1645579113317720  0.9999857295705890  0.7490691584575785
  0.4987784738156691  0.9988732802537037  0.7483600406883291
  0.8311623593562014  0.9997195213316459  0.7500218152670509
  0.1647821300113528  0.3337202717480839  0.7512578888085680
  0.4986948360049138  0.3334815256871642  0.7484619943929302
  0.8307924721249547  0.3333212321577988  0.7506226813825684
  0.1654098269471579  0.6669113331847412  0.7515164355086308
  0.4988434238122706  0.6663473872421987  0.7505820754434912
  0.8308240330313392  0.6667350300992680  0.7522891611523871
  0.9955679832472774  0.1656974713191671  0.2519413692275766
  0.3307199781807890  0.1657205384373467  0.2505806487621972
  0.6630580813771971  0.1680458303351856  0.2498905870460907
  0.9954985055770343  0.5009468562768937  0.2523982776914986
  0.3308295368281716  0.5013208781199381  0.2511001271735086
  0.6627550458856719  0.4982113607167303  0.2503732026535504
  0.9968060686501722  0.8332582286891878  0.2512912698352749
  0.3296738217412936  0.8333787987042796  0.2491792115371539
  0.6627469625156519  0.8330431866046498  0.2499503685277270
  0.9980376416545220  0.9998119459838013  0.0004648379345706
  0.3312996272277076  0.0000742671306396  0.9989232945374983
  0.6648397752723189  0.0000648771289593  0.0011271467024889
  0.9973891574759202  0.3335365011331755  0.0008171879452755
  0.3327861587283847  0.3336276481422731  0.0000603115824803
  0.6652017314870868  0.3332642654551804  0.0034745711629815
  0.9983500835716814  0.6669423121233496  0.0010878970601138
  0.3316766858652386  0.6667641119449502  0.9990683384583422
  0.6652214472876018  0.6663178105823861  0.0012461599195535
  0.1637963669865829  0.1674500316347082  0.5005948794603836
  0.4964975797592487  0.1663648470308454  0.4990645344094569
  0.8305883872472560  0.1657807130753410  0.5017065621470418
  0.1637013766525569  0.5000601568878781  0.5011075686749065
  0.4964716400754303  0.5003072076022222  0.5003519320948433
  0.8304541011925591  0.5015500260735601  0.5024587650306320
  0.1630060818318723  0.8330685391548468  0.4987045104639676
  0.4974436589296855  0.8330170483206109  0.4991784984380522
  0.8297108142660092  0.8331958643865688  0.5004607339187973
  0.9983233924365188  0.0021230234877098  0.7940019738452216
  0.3310458258193086  0.0008392087879844  0.7931069206944235
  0.6653231721742495  0.0001636007097567  0.7951225248997833
  0.9995896488198202  0.3334516261750898  0.7947617312189531
  0.3301550510629919  0.3326216425424000  0.7938673326089845
  0.6645960208485484  0.3323792118056635  0.7951608578976443
  0.9987433345348984  0.6656106290351638  0.7963218953935265
  0.3280176516626728  0.6660189992950387  0.7959120963410938
  0.6686185641244908  0.6668098726574173  0.7976686622085765
  0.1636317072765026  0.1687733273657198  0.2947213401121337
  0.4935506422653396  0.1484428849186739  0.2959754072252418
  0.8333242404439594  0.1486653486115210  0.2979933450796032
  0.1636056845253955  0.4987055794028168  0.2953268493122205
  0.4935325562263181  0.5165530783120158  0.2962887817688535
  0.8332575069163050  0.5172243120876824  0.2987313508490066
  0.1643149125299012  0.8332517525767001  0.2929641868910174
  0.4949027421497515  0.8344276660337563  0.2895412246603866
  0.8307069199619662  0.8340684951675755  0.2907867159682269
  0.9984666639842641  0.1668190926914504  0.0459460786181019
  0.3314473220142179  0.1668750663216871  0.0447344193230362
  0.6690653887403095  0.1649528986528529  0.0419762870136255
  0.9988733029436586  0.4995050768252482  0.0464835725146064
  0.3302441775145343  0.4995898347007954  0.0449479132836758
  0.6695364330713538  0.5009871640488431  0.0431455232603204
  0.9987290513895527  0.8338713653335049  0.0436531893895889
  0.3325437528408650  0.8339683214131306  0.0415425767186871
  0.6651359630539284  0.8334983057849872  0.0431795170285446
  0.1643673519107657  0.0006911321708064  0.5433286871538946
  0.4979265693088828  0.0006596370073572  0.5422004448536807
  0.8285048586147762  0.0034192023542497  0.5470467842383702
  0.1646842886756417  0.3335606348940632  0.5454699356622161
  0.4938317647718127  0.3323692789817626  0.5392408227549889
  0.8319505078639925  0.3335397301928843  0.5445424856466952
  0.1649844937621513  0.6661947983089167  0.5445639316207589
  0.4978504402753272  0.6661407984050830  0.5426918726484005
  0.8283708241079885  0.6633742776076712  0.5483706888049835
  0.1646609200921522  0.0001198997697714  0.9547508762343397
  0.4977935895060623  0.0005530499957601  0.9559628315913579
  0.8324858049894009  0.9989497513811377  0.9580165739980541
  0.1648743135054751  0.3332233839094539  0.9580828964589255
  0.4956072548367549  0.3334807025865160  0.9521675919774968
  0.8345836560832899  0.3331858043596280  0.9529678096178236
  0.1642450765851869  0.6670319156615294  0.9584335611461515
  0.4979414940383526  0.6652534265370605  0.9599850748453838
  0.8332987082285183  0.6677051304541616  0.9612874228265944
  0.9981606651790066  0.1686997791363649  0.4582489391237778
  0.3294356826724906  0.1683622950820798  0.4567537968068220
  0.6636358420689173  0.1746703073727230  0.4535312659039907
  0.9981222274487812  0.4981492854463535  0.4588341296666029
  0.3294176766828396  0.4986008366660255  0.4571284274308834
  0.6632299536111725  0.4926838534664434  0.4543355557931403
  0.0004473140710422  0.8329479105012217  0.4546195081981733
  0.3304687068287852  0.8334021579958488  0.4542324106270275
  0.6596859150375708  0.8334264264945349  0.4526777612843806
  0.1643802427487573  0.1667247881093187  0.7065690559497859
  0.4991367376506977  0.1661950896036061  0.7039478402643167
  0.8315400278734474  0.1671477607685690  0.7088473265257782
  0.1642362556324041  0.4998384700520170  0.7071727996469788
  0.4986214171285452  0.4958200192924828  0.7040067506402248
  0.8319961731656670  0.4989423467271590  0.7103109924021971
  0.1638283635344980  0.8340708705371155  0.7059086878739470
  0.4988275750954063  0.8368378482285862  0.7038254969275646
  0.8332765186599960  0.8340612233196238  0.7094204870582347
  0.0033445811687358  0.9994387212554598  0.2059290409926631
  0.3224644536304104  0.9996137609503661  0.2038328931911950
  0.6615126831818843  0.9998213440470609  0.2054727134463824
  0.9909668993830938  0.3332666110240776  0.2093793370373800
  0.3366299546431940  0.3333189740691854  0.2081144769672867
  0.7331372729703082  0.3331095802938684  0.2023178775316648
  0.0020596070806284  0.6673257776539148  0.2069520462362316
  0.3243489881035789  0.6674972155322155  0.2049220662947688
  0.6609973714349475  0.6667993545786056  0.2068516840165816
  0.6075402475410755  0.3329941515355671  0.2041000224594425
 
  0.00000000E+00  0.00000000E+00  0.00000000E+00
  0.00000000E+00  0.00000000E+00  0.00000000E+00
  0.00000000E+00  0.00000000E+00  0.00000000E+00
  0.00000000E+00  0.00000000E+00  0.00000000E+00
  0.00000000E+00  0.00000000E+00  0.00000000E+00
  0.00000000E+00  0.00000000E+00  0.00000000E+00
  0.00000000E+00  0.00000000E+00  0.00000000E+00
  0.00000000E+00  0.00000000E+00  0.00000000E+00
  0.00000000E+00  0.00000000E+00  0.00000000E+00
  0.00000000E+00  0.00000000E+00  0.00000000E+00
  0.00000000E+00  0.00000000E+00  0.00000000E+00
  0.00000000E+00  0.00000000E+00  0.00000000E+00
  0.00000000E+00  0.00000000E+00  0.00000000E+00
  0.00000000E+00  0.00000000E+00  0.00000000E+00
  0.00000000E+00  0.00000000E+00  0.00000000E+00
  0.00000000E+00  0.00000000E+00  0.00000000E+00
  0.00000000E+00  0.00000000E+00  0.00000000E+00
  0.00000000E+00  0.00000000E+00  0.00000000E+00
  0.00000000E+00  0.00000000E+00  0.00000000E+00
  0.00000000E+00  0.00000000E+00  0.00000000E+00
  0.00000000E+00  0.00000000E+00  0.00000000E+00
  0.00000000E+00  0.00000000E+00  0.00000000E+00
  0.00000000E+00  0.00000000E+00  0.00000000E+00
  0.00000000E+00  0.00000000E+00  0.00000000E+00
  0.00000000E+00  0.00000000E+00  0.00000000E+00
  0.00000000E+00  0.00000000E+00  0.00000000E+00
  0.00000000E+00  0.00000000E+00  0.00000000E+00
  0.00000000E+00  0.00000000E+00  0.00000000E+00
  0.00000000E+00  0.00000000E+00  0.00000000E+00
  0.00000000E+00  0.00000000E+00  0.00000000E+00
  0.00000000E+00  0.00000000E+00  0.00000000E+00
  0.00000000E+00  0.00000000E+00  0.00000000E+00
  0.00000000E+00  0.00000000E+00  0.00000000E+00
  0.00000000E+00  0.00000000E+00  0.00000000E+00
  0.00000000E+00  0.00000000E+00  0.00000000E+00
  0.00000000E+00  0.00000000E+00  0.00000000E+00
  0.00000000E+00  0.00000000E+00  0.00000000E+00
  0.00000000E+00  0.00000000E+00  0.00000000E+00
  0.00000000E+00  0.00000000E+00  0.00000000E+00
  0.00000000E+00  0.00000000E+00  0.00000000E+00
  0.00000000E+00  0.00000000E+00  0.00000000E+00
  0.00000000E+00  0.00000000E+00  0.00000000E+00
  0.00000000E+00  0.00000000E+00  0.00000000E+00
  0.00000000E+00  0.00000000E+00  0.00000000E+00
  0.00000000E+00  0.00000000E+00  0.00000000E+00
  0.00000000E+00  0.00000000E+00  0.00000000E+00
  0.00000000E+00  0.00000000E+00  0.00000000E+00
  0.00000000E+00  0.00000000E+00  0.00000000E+00
  0.00000000E+00  0.00000000E+00  0.00000000E+00
  0.00000000E+00  0.00000000E+00  0.00000000E+00
  0.00000000E+00  0.00000000E+00  0.00000000E+00
  0.00000000E+00  0.00000000E+00  0.00000000E+00
  0.00000000E+00  0.00000000E+00  0.00000000E+00
  0.00000000E+00  0.00000000E+00  0.00000000E+00
  0.00000000E+00  0.00000000E+00  0.00000000E+00
  0.00000000E+00  0.00000000E+00  0.00000000E+00
  0.00000000E+00  0.00000000E+00  0.00000000E+00
  0.00000000E+00  0.00000000E+00  0.00000000E+00
  0.00000000E+00  0.00000000E+00  0.00000000E+00
  0.00000000E+00  0.00000000E+00  0.00000000E+00
  0.00000000E+00  0.00000000E+00  0.00000000E+00
  0.00000000E+00  0.00000000E+00  0.00000000E+00
  0.00000000E+00  0.00000000E+00  0.00000000E+00
  0.00000000E+00  0.00000000E+00  0.00000000E+00
  0.00000000E+00  0.00000000E+00  0.00000000E+00
  0.00000000E+00  0.00000000E+00  0.00000000E+00
  0.00000000E+00  0.00000000E+00  0.00000000E+00
  0.00000000E+00  0.00000000E+00  0.00000000E+00
  0.00000000E+00  0.00000000E+00  0.00000000E+00
  0.00000000E+00  0.00000000E+00  0.00000000E+00
  0.00000000E+00  0.00000000E+00  0.00000000E+00
  0.00000000E+00  0.00000000E+00  0.00000000E+00
  0.00000000E+00  0.00000000E+00  0.00000000E+00
  0.00000000E+00  0.00000000E+00  0.00000000E+00
  0.00000000E+00  0.00000000E+00  0.00000000E+00
  0.00000000E+00  0.00000000E+00  0.00000000E+00
  0.00000000E+00  0.00000000E+00  0.00000000E+00
  0.00000000E+00  0.00000000E+00  0.00000000E+00
  0.00000000E+00  0.00000000E+00  0.00000000E+00
  0.00000000E+00  0.00000000E+00  0.00000000E+00
  0.00000000E+00  0.00000000E+00  0.00000000E+00
  0.00000000E+00  0.00000000E+00  0.00000000E+00
  0.00000000E+00  0.00000000E+00  0.00000000E+00
  0.00000000E+00  0.00000000E+00  0.00000000E+00
  0.00000000E+00  0.00000000E+00  0.00000000E+00
  0.00000000E+00  0.00000000E+00  0.00000000E+00
  0.00000000E+00  0.00000000E+00  0.00000000E+00
  0.00000000E+00  0.00000000E+00  0.00000000E+00
  0.00000000E+00  0.00000000E+00  0.00000000E+00
  0.00000000E+00  0.00000000E+00  0.00000000E+00
  0.00000000E+00  0.00000000E+00  0.00000000E+00
  0.00000000E+00  0.00000000E+00  0.00000000E+00
  0.00000000E+00  0.00000000E+00  0.00000000E+00
  0.00000000E+00  0.00000000E+00  0.00000000E+00
  0.00000000E+00  0.00000000E+00  0.00000000E+00
  0.00000000E+00  0.00000000E+00  0.00000000E+00
  0.00000000E+00  0.00000000E+00  0.00000000E+00
  0.00000000E+00  0.00000000E+00  0.00000000E+00
  0.00000000E+00  0.00000000E+00  0.00000000E+00
  0.00000000E+00  0.00000000E+00  0.00000000E+00
  0.00000000E+00  0.00000000E+00  0.00000000E+00
  0.00000000E+00  0.00000000E+00  0.00000000E+00
  0.00000000E+00  0.00000000E+00  0.00000000E+00
  0.00000000E+00  0.00000000E+00  0.00000000E+00
  0.00000000E+00  0.00000000E+00  0.00000000E+00
  0.00000000E+00  0.00000000E+00  0.00000000E+00
  0.00000000E+00  0.00000000E+00  0.00000000E+00
  0.00000000E+00  0.00000000E+00  0.00000000E+00
  0.00000000E+00  0.00000000E+00  0.00000000E+00
