CIF file                                
   1.00000000000000     
    11.3519997597000071    0.0000000000000000    0.0000000000000000
     0.0000000000000000   11.3519997597000071    0.0000000000000000
     0.0000000000000000    0.0000000000000000    9.6265001297000055
   Ti   O    N 
    36    72     1
Direct
  0.1642165594204069  0.9998382434721091  0.7495066729638824
  0.4969543399185063  0.9997125393421856  0.7506366395369860
  0.8314247266113400  0.9996253663679132  0.7506073522143647
  0.1646151729798410  0.3332486153586763  0.7504668598183750
  0.4936285034424247  0.3333137296156496  0.7460560967248019
  0.8355685451725983  0.3332945793909625  0.7457719059403792
  0.1642579586013738  0.6666536439017684  0.7497209723683431
  0.4969824373524702  0.6669268448726157  0.7507345589230942
  0.8314674427427580  0.6669855696986158  0.7506901562729601
  0.9967263065938813  0.1652677314532628  0.2515990468710403
  0.3311340965722019  0.1652760973272833  0.2517863246202344
  0.6640236353042686  0.1613881019241256  0.2516341915506069
  0.9968058504108047  0.5013946074266564  0.2516698241511564
  0.3312333004685368  0.5015019002878384  0.2518508794784086
  0.6641206329730772  0.5053813523089675  0.2517796422098407
  0.9976030164075207  0.8333773315710843  0.2494000254891700
  0.3299311635717746  0.8334513220492135  0.2496605830301275
  0.6635632677835561  0.8334178324026513  0.2481710675149729
  0.9979154848804369  0.0000189331396929  0.9999972650019516
  0.3302241079346239  0.0000786015245313  0.0001592545490898
  0.6640858509856503  0.0007282033698486  0.9981150695104071
  0.9974498451673441  0.3333451788927826  0.0020446799035192
  0.3311393829402853  0.3334003168140987  0.0023225490361153
  0.6645497445173209  0.3333975099857820  0.9849942090438288
  0.9979244020120894  0.6666642416683706  0.0001388596064154
  0.3303360655037325  0.6667252402915326  0.0003162565320267
  0.6641553581613309  0.6660198001426660  0.9982334794992760
  0.1637551070130434  0.1669650819903885  0.5010513805435520
  0.4962198003510843  0.1651703625451927  0.4997797575820883
  0.8312887413152229  0.1650384994009130  0.4997969988427637
  0.1638536174873100  0.4995759373088005  0.5011122474498481
  0.4963141727001069  0.5014602131108827  0.4998686686813905
  0.8313951876088952  0.5015298089660934  0.4999159203968596
  0.1637455796260089  0.8332051548112240  0.4999967752589759
  0.4972029215543776  0.8333007857459610  0.4996183721552456
  0.8304509346060327  0.8332689752580792  0.4993303232478717
  0.9979186357748689  0.9998564051641414  0.7936737190830854
  0.3311676401862726  0.9998304717193804  0.7937968985363344
  0.6645558121598716  0.0007024437304110  0.7940473450916651
  0.9991911991756027  0.3333428636182937  0.7940309586971002
  0.3302972283449749  0.3333474903590714  0.7944879026477307
  0.6646605955625385  0.3333337960230468  0.7898090637126065
  0.9979661797428437  0.6666953963972758  0.7938634667240324
  0.3312122830350530  0.6667830860860723  0.7939999826626623
  0.6645943850460564  0.6659517499718338  0.7941480529616671
  0.1640937664673998  0.1676493035087562  0.2956171515891562
  0.4942826803493006  0.1458368546163146  0.2986868692984886
  0.8337034161813394  0.1456082092679652  0.2983157925803513
  0.1641745326676254  0.4993468009856656  0.2955812267873497
  0.4944232560495771  0.5208523322534879  0.2988503026239294
  0.8337527175711139  0.5209917934688379  0.2984725834122298
  0.1640834611987055  0.8331205507180011  0.2956246242805867
  0.4970296842256789  0.8335042117347706  0.2933364096963471
  0.8309986417635125  0.8335181080913387  0.2927953675385255
  0.9978506804054836  0.1671143673120501  0.0456910735211627
  0.3320293942070405  0.1671476123901787  0.0458685835622075
  0.6661188350962434  0.1705225423473788  0.0455926704348940
  0.9980059785523409  0.4995546166329581  0.0457691776812405
  0.3318846165525913  0.4996010375067150  0.0459720639697101
  0.6661980274743777  0.4962354399492193  0.0457871643134806
  0.9965380257388778  0.8333590811276291  0.0423070120178510
  0.3330357387316445  0.8334086803675282  0.0426203491486310
  0.6651142939991411  0.8333634909397982  0.0403820480376163
  0.1641921396716940  0.9999640837618485  0.5439531447652571
  0.4988469237490684  0.9991723807187139  0.5457374797528106
  0.8300025586247700  0.9991378253902331  0.5455510622764791
  0.1644954547514407  0.3332854837222028  0.5463735904921891
  0.4961071092976848  0.3333200219528846  0.5411922519647807
  0.8324006808933374  0.3332964111935156  0.5410143823327955
  0.1642686046390556  0.6665810211264079  0.5440855399198986
  0.4986713727038323  0.6674630978604421  0.5458194630925188
  0.8302822758782089  0.6674519628572902  0.5456307607094796
  0.1645262525267747  0.0001810617817639  0.9551883118746718
  0.4977638880063530  0.0015098506064680  0.9566335846800389
  0.8313277280149871  0.0012811888241153  0.9565192421411585
  0.1646435797819434  0.3332446681429130  0.9585788661265413
  0.4971434910641986  0.3334156178613224  0.9514296138169633
  0.8324894412423548  0.3333709100784026  0.9508332055489962
  0.1645734831432831  0.6665816517731101  0.9554202004708756
  0.4978282491112834  0.6651413585449214  0.9567707940986664
  0.8313597764214846  0.6653954180412516  0.9566078473448671
  0.9980825496539742  0.1685016948927243  0.4583785979098230
  0.3301454887943627  0.1683040200169988  0.4587496850465458
  0.6642990866330273  0.1713212006768854  0.4549265945122916
  0.9981951803638290  0.4979000394318248  0.4584197342816852
  0.3301906371951973  0.4981855077901755  0.4587651714132131
  0.6643774052318834  0.4954121982502095  0.4551545619229929
  0.9970541576425378  0.8333476973454842  0.4558168962912220
  0.3312617872648814  0.8334173241639581  0.4560934757915470
  0.6642473817756663  0.8331787489837730  0.4536389488578554
  0.1647751673089017  0.1664371798371457  0.7074072276063569
  0.4975956481340507  0.1665578874343774  0.7061251899146184
  0.8318462974126895  0.1664883399892939  0.7059632361130778
  0.1648200492072387  0.5001507703729824  0.7074720689993840
  0.4976410330689592  0.5000966340233217  0.7062162236167963
  0.8318370102403765  0.5001242518269160  0.7060549213568726
  0.1646868645955000  0.8332613643748193  0.7060080852030932
  0.4982524762828258  0.8333165013006293  0.7069648321984628
  0.8311648552090576  0.8332991252393948  0.7066785900132682
  0.0025189264207364  0.9989021610771679  0.2042950977940433
  0.3243328139713378  0.9989443818420267  0.2043705348634113
  0.6621444409288533  0.9984168407362689  0.2026223789558191
  0.9896422700201144  0.3333379972526140  0.2089352287302004
  0.3370781320895549  0.3333720628942729  0.2093063780424974
  0.7279421559693057  0.3333250176339526  0.2218155435578298
  0.0021760777411794  0.6678060330161328  0.2044185092925294
  0.3250801627044354  0.6678583582454847  0.2044976115544063
  0.6622913376805184  0.6683634997716582  0.2027863963286800
  0.6109192966516283  0.3333854906484940  0.2231162112921104
 
  0.00000000E+00  0.00000000E+00  0.00000000E+00
  0.00000000E+00  0.00000000E+00  0.00000000E+00
  0.00000000E+00  0.00000000E+00  0.00000000E+00
  0.00000000E+00  0.00000000E+00  0.00000000E+00
  0.00000000E+00  0.00000000E+00  0.00000000E+00
  0.00000000E+00  0.00000000E+00  0.00000000E+00
  0.00000000E+00  0.00000000E+00  0.00000000E+00
  0.00000000E+00  0.00000000E+00  0.00000000E+00
  0.00000000E+00  0.00000000E+00  0.00000000E+00
  0.00000000E+00  0.00000000E+00  0.00000000E+00
  0.00000000E+00  0.00000000E+00  0.00000000E+00
  0.00000000E+00  0.00000000E+00  0.00000000E+00
  0.00000000E+00  0.00000000E+00  0.00000000E+00
  0.00000000E+00  0.00000000E+00  0.00000000E+00
  0.00000000E+00  0.00000000E+00  0.00000000E+00
  0.00000000E+00  0.00000000E+00  0.00000000E+00
  0.00000000E+00  0.00000000E+00  0.00000000E+00
  0.00000000E+00  0.00000000E+00  0.00000000E+00
  0.00000000E+00  0.00000000E+00  0.00000000E+00
  0.00000000E+00  0.00000000E+00  0.00000000E+00
  0.00000000E+00  0.00000000E+00  0.00000000E+00
  0.00000000E+00  0.00000000E+00  0.00000000E+00
  0.00000000E+00  0.00000000E+00  0.00000000E+00
  0.00000000E+00  0.00000000E+00  0.00000000E+00
  0.00000000E+00  0.00000000E+00  0.00000000E+00
  0.00000000E+00  0.00000000E+00  0.00000000E+00
  0.00000000E+00  0.00000000E+00  0.00000000E+00
  0.00000000E+00  0.00000000E+00  0.00000000E+00
  0.00000000E+00  0.00000000E+00  0.00000000E+00
  0.00000000E+00  0.00000000E+00  0.00000000E+00
  0.00000000E+00  0.00000000E+00  0.00000000E+00
  0.00000000E+00  0.00000000E+00  0.00000000E+00
  0.00000000E+00  0.00000000E+00  0.00000000E+00
  0.00000000E+00  0.00000000E+00  0.00000000E+00
  0.00000000E+00  0.00000000E+00  0.00000000E+00
  0.00000000E+00  0.00000000E+00  0.00000000E+00
  0.00000000E+00  0.00000000E+00  0.00000000E+00
  0.00000000E+00  0.00000000E+00  0.00000000E+00
  0.00000000E+00  0.00000000E+00  0.00000000E+00
  0.00000000E+00  0.00000000E+00  0.00000000E+00
  0.00000000E+00  0.00000000E+00  0.00000000E+00
  0.00000000E+00  0.00000000E+00  0.00000000E+00
  0.00000000E+00  0.00000000E+00  0.00000000E+00
  0.00000000E+00  0.00000000E+00  0.00000000E+00
  0.00000000E+00  0.00000000E+00  0.00000000E+00
  0.00000000E+00  0.00000000E+00  0.00000000E+00
  0.00000000E+00  0.00000000E+00  0.00000000E+00
  0.00000000E+00  0.00000000E+00  0.00000000E+00
  0.00000000E+00  0.00000000E+00  0.00000000E+00
  0.00000000E+00  0.00000000E+00  0.00000000E+00
  0.00000000E+00  0.00000000E+00  0.00000000E+00
  0.00000000E+00  0.00000000E+00  0.00000000E+00
  0.00000000E+00  0.00000000E+00  0.00000000E+00
  0.00000000E+00  0.00000000E+00  0.00000000E+00
  0.00000000E+00  0.00000000E+00  0.00000000E+00
  0.00000000E+00  0.00000000E+00  0.00000000E+00
  0.00000000E+00  0.00000000E+00  0.00000000E+00
  0.00000000E+00  0.00000000E+00  0.00000000E+00
  0.00000000E+00  0.00000000E+00  0.00000000E+00
  0.00000000E+00  0.00000000E+00  0.00000000E+00
  0.00000000E+00  0.00000000E+00  0.00000000E+00
  0.00000000E+00  0.00000000E+00  0.00000000E+00
  0.00000000E+00  0.00000000E+00  0.00000000E+00
  0.00000000E+00  0.00000000E+00  0.00000000E+00
  0.00000000E+00  0.00000000E+00  0.00000000E+00
  0.00000000E+00  0.00000000E+00  0.00000000E+00
  0.00000000E+00  0.00000000E+00  0.00000000E+00
  0.00000000E+00  0.00000000E+00  0.00000000E+00
  0.00000000E+00  0.00000000E+00  0.00000000E+00
  0.00000000E+00  0.00000000E+00  0.00000000E+00
  0.00000000E+00  0.00000000E+00  0.00000000E+00
  0.00000000E+00  0.00000000E+00  0.00000000E+00
  0.00000000E+00  0.00000000E+00  0.00000000E+00
  0.00000000E+00  0.00000000E+00  0.00000000E+00
  0.00000000E+00  0.00000000E+00  0.00000000E+00
  0.00000000E+00  0.00000000E+00  0.00000000E+00
  0.00000000E+00  0.00000000E+00  0.00000000E+00
  0.00000000E+00  0.00000000E+00  0.00000000E+00
  0.00000000E+00  0.00000000E+00  0.00000000E+00
  0.00000000E+00  0.00000000E+00  0.00000000E+00
  0.00000000E+00  0.00000000E+00  0.00000000E+00
  0.00000000E+00  0.00000000E+00  0.00000000E+00
  0.00000000E+00  0.00000000E+00  0.00000000E+00
  0.00000000E+00  0.00000000E+00  0.00000000E+00
  0.00000000E+00  0.00000000E+00  0.00000000E+00
  0.00000000E+00  0.00000000E+00  0.00000000E+00
  0.00000000E+00  0.00000000E+00  0.00000000E+00
  0.00000000E+00  0.00000000E+00  0.00000000E+00
  0.00000000E+00  0.00000000E+00  0.00000000E+00
  0.00000000E+00  0.00000000E+00  0.00000000E+00
  0.00000000E+00  0.00000000E+00  0.00000000E+00
  0.00000000E+00  0.00000000E+00  0.00000000E+00
  0.00000000E+00  0.00000000E+00  0.00000000E+00
  0.00000000E+00  0.00000000E+00  0.00000000E+00
  0.00000000E+00  0.00000000E+00  0.00000000E+00
  0.00000000E+00  0.00000000E+00  0.00000000E+00
  0.00000000E+00  0.00000000E+00  0.00000000E+00
  0.00000000E+00  0.00000000E+00  0.00000000E+00
  0.00000000E+00  0.00000000E+00  0.00000000E+00
  0.00000000E+00  0.00000000E+00  0.00000000E+00
  0.00000000E+00  0.00000000E+00  0.00000000E+00
  0.00000000E+00  0.00000000E+00  0.00000000E+00
  0.00000000E+00  0.00000000E+00  0.00000000E+00
  0.00000000E+00  0.00000000E+00  0.00000000E+00
  0.00000000E+00  0.00000000E+00  0.00000000E+00
  0.00000000E+00  0.00000000E+00  0.00000000E+00
  0.00000000E+00  0.00000000E+00  0.00000000E+00
  0.00000000E+00  0.00000000E+00  0.00000000E+00
  0.00000000E+00  0.00000000E+00  0.00000000E+00
