CIF file                                
   1.00000000000000     
    11.3519997597000071    0.0000000000000000    0.0000000000000000
     0.0000000000000000   11.3519997597000071    0.0000000000000000
     0.0000000000000000    0.0000000000000000    9.6265001297000055
   Ti   O    N 
    36    72     1
Direct
  0.1640607481825457  0.9999691249366380  0.7488586786260654
  0.4955541763812140  0.9997262760705689  0.7501776905032803
  0.8323904989474389  0.9994849169904527  0.7507617649154047
  0.1645091828217460  0.3334092719930156  0.7495080951838373
  0.4912258191132231  0.3333640006473315  0.7432157335526686
  0.8377632158873907  0.3333084283215457  0.7431129346302848
  0.1640940224608123  0.6669159475273030  0.7491898710096635
  0.4956075636333060  0.6670219873740406  0.7502986061253424
  0.8325008824850340  0.6671912814041746  0.7507186748407648
  0.9975135221052720  0.1652315083346431  0.2509124496670249
  0.3309839725068409  0.1652338672321481  0.2509005894443026
  0.6647267729780986  0.1507458517513282  0.2544102221469000
  0.9975771860270680  0.5015035349791449  0.2509795250750861
  0.3310706181844303  0.5014972765256016  0.2508798956980711
  0.6648369069717908  0.5155335731113098  0.2549297003630431
  0.9976469164995401  0.8334451108289483  0.2490622108896859
  0.3293601008104208  0.8334449665503157  0.2494858482221696
  0.6633760820658265  0.8331202238033792  0.2508729717258985
  0.9980595911005056  1.0001244530006956  0.0001547025398772
  0.3294296862117430  1.0000250183764361  0.0002887977612841
  0.6635695076921857  0.9989469870648975  0.9940410446806647
  0.9976452289099778  0.3333825106946684  0.0019014066123446
  0.3306115941030000  0.3333503878791307  0.0020144896432163
  0.6644280216562940  0.3332434731964246  0.9740856707047018
  0.9980213875741076  0.6667590765336904  0.0003792379787914
  0.3295410643115685  0.6667768562036637  0.0004662428587230
  0.6636637863793475  0.6668902084224440  0.9941320515560219
  0.1639038560689301  0.1671422451765384  0.5007830400451246
  0.4955650869261373  0.1646276477377755  0.4997362394966064
  0.8323350829550731  0.1643561224069673  0.5004304093650812
  0.1639948053857687  0.4998987654471675  0.5008947110352122
  0.4955302698792854  0.5021109440936574  0.4998233458627177
  0.8325234841749358  0.5022513177892133  0.5005600474729178
  0.1633778240639103  0.8334294599989106  0.4999387246780749
  0.4958774997194381  0.8333356821382214  0.4999136268928526
  0.8312312023793206  0.8333353026339725  0.4997840855321243
  0.9978449061115261  0.9995976414089459  0.7938786783427025
  0.3308881151315394  0.9996126751016919  0.7936610595463346
  0.6643991605632953  0.0015277115773761  0.7934191953095883
  0.9994413563856691  0.3333880957508686  0.7933876943647734
  0.3299083068916209  0.3333242136848448  0.7937547393948137
  0.6646434649648940  0.3334368124439542  0.7826765047527433
  0.9978703007313490  0.6671800284852101  0.7940038290866462
  0.3309068192371752  0.6672322107099994  0.7939256294559662
  0.6644198657874254  0.6648542912633248  0.7934832065822189
  0.1641728977209364  0.1692885717116687  0.2945735325433484
  0.4949923185489038  0.1448895975210603  0.2978060646842641
  0.8334695085204449  0.1428723380009504  0.2982192512743282
  0.1642426076810375  0.4981976630958002  0.2945178434725786
  0.4951590717308909  0.5216529201770217  0.2979777882571385
  0.8335580764473332  0.5235208421845715  0.2985188062161572
  0.1639319010278533  0.8329421966713697  0.2954315948126876
  0.4969714847051755  0.8333437027768416  0.2936020017473342
  0.8307762263834620  0.8336904840476119  0.2929576017445490
  0.9981275710391679  0.1673234919520783  0.0454005607279623
  0.3316539389537210  0.1671768570333939  0.0453443128976098
  0.6649068510442908  0.1761783382554437  0.0530094491695892
  0.9985776853873207  0.4993852224606962  0.0456033808061258
  0.3312318815275752  0.4995283118198369  0.0453374717563226
  0.6647732265168270  0.4902690044400516  0.0532391405974508
  0.9943954127754842  0.8333920268372436  0.0420622416369622
  0.3341526531681694  0.8334060891865355  0.0426488090195378
  0.6649085076549262  0.8330752363570708  0.0363650333015922
  0.1640411148311617  0.0002364590134799  0.5434582212243385
  0.4985428059055091  0.9989423834039707  0.5456794411394890
  0.8304182182767114  0.9987901405404390  0.5461657536080031
  0.1646866979123929  0.3334269675211578  0.5460176624743823
  0.4966975485695311  0.3333249499219994  0.5389074029502814
  0.8321892659897651  0.3332806167745476  0.5387682785466463
  0.1641531524525635  0.6665984500551909  0.5437021821627022
  0.4982990027311017  0.6677174830064534  0.5456964093400990
  0.8307821171218884  0.6678643840062259  0.5460703242373923
  0.1643730772666084  0.9997601186679043  0.9550658372843671
  0.4978736894327809  0.0032628977085789  0.9564348013874512
  0.8306965825170091  0.0036018036207059  0.9570028721904648
  0.1645260476011899  0.3330772613255715  0.9583815040187351
  0.4975150889348452  0.3333999085789446  0.9502441612934134
  0.8320306817018666  0.3334211005815791  0.9495785289374258
  0.1643462246648663  0.6672928598358305  0.9553667124776238
  0.4979281130357544  0.6630525347414932  0.9565976148325797
  0.8307337591470079  0.6626590055591732  0.9569497094573562
  0.9982105045486592  0.1686534314916913  0.4574971008952919
  0.3302939710142296  0.1682276030427003  0.4577046374291692
  0.6645295673337667  0.1688949411815373  0.4555966817642148
  0.9983783922193783  0.4978547281457833  0.4576052972725392
  0.3303033825799018  0.4982698425944913  0.4576190928189800
  0.6645885099329567  0.4977884469693145  0.4560906556025064
  0.9968662458463452  0.8334936175919753  0.4557370513012776
  0.3310252831863787  0.8336063097564621  0.4561528244591795
  0.6642038067860470  0.8330524365705755  0.4532169399354519
  0.1646096952291005  0.1664839858044399  0.7067606853251613
  0.4966024642197120  0.1666404290361776  0.7051544955170349
  0.8326596996278194  0.1665429575049715  0.7053951707220673
  0.1647242783600220  0.5003348148383543  0.7069002937491176
  0.4963785924132154  0.5000397006606517  0.7052166366416971
  0.8327335785297970  0.5000869051473603  0.7054127067810554
  0.1644489728392719  0.8334137028595938  0.7054577011365453
  0.4983223678899053  0.8333057755469722  0.7075818041409959
  0.8306347019506010  0.8333083436986422  0.7077970393742229
  0.0036490695681210  0.9989698843890412  0.2040116310542802
  0.3235099450427198  0.9990411283890250  0.2042405725912759
  0.6614825296962198  0.9952607574083009  0.2005403782345723
  0.9858184457257512  0.3333451486397674  0.2085452002275855
  0.3396565378869577  0.3333792588135719  0.2083830198161673
  0.7289398386146115  0.3333940671045709  0.2407048192760143
  0.0027026948825476  0.6678540005167665  0.2041955920560792
  0.3246663133256397  0.6677476188901225  0.2043444277517781
  0.6621589496829580  0.6710353465185160  0.2006960916827542
  0.6203038554497549  0.3331786432267008  0.2489452760432399
 
  0.00000000E+00  0.00000000E+00  0.00000000E+00
  0.00000000E+00  0.00000000E+00  0.00000000E+00
  0.00000000E+00  0.00000000E+00  0.00000000E+00
  0.00000000E+00  0.00000000E+00  0.00000000E+00
  0.00000000E+00  0.00000000E+00  0.00000000E+00
  0.00000000E+00  0.00000000E+00  0.00000000E+00
  0.00000000E+00  0.00000000E+00  0.00000000E+00
  0.00000000E+00  0.00000000E+00  0.00000000E+00
  0.00000000E+00  0.00000000E+00  0.00000000E+00
  0.00000000E+00  0.00000000E+00  0.00000000E+00
  0.00000000E+00  0.00000000E+00  0.00000000E+00
  0.00000000E+00  0.00000000E+00  0.00000000E+00
  0.00000000E+00  0.00000000E+00  0.00000000E+00
  0.00000000E+00  0.00000000E+00  0.00000000E+00
  0.00000000E+00  0.00000000E+00  0.00000000E+00
  0.00000000E+00  0.00000000E+00  0.00000000E+00
  0.00000000E+00  0.00000000E+00  0.00000000E+00
  0.00000000E+00  0.00000000E+00  0.00000000E+00
  0.00000000E+00  0.00000000E+00  0.00000000E+00
  0.00000000E+00  0.00000000E+00  0.00000000E+00
  0.00000000E+00  0.00000000E+00  0.00000000E+00
  0.00000000E+00  0.00000000E+00  0.00000000E+00
  0.00000000E+00  0.00000000E+00  0.00000000E+00
  0.00000000E+00  0.00000000E+00  0.00000000E+00
  0.00000000E+00  0.00000000E+00  0.00000000E+00
  0.00000000E+00  0.00000000E+00  0.00000000E+00
  0.00000000E+00  0.00000000E+00  0.00000000E+00
  0.00000000E+00  0.00000000E+00  0.00000000E+00
  0.00000000E+00  0.00000000E+00  0.00000000E+00
  0.00000000E+00  0.00000000E+00  0.00000000E+00
  0.00000000E+00  0.00000000E+00  0.00000000E+00
  0.00000000E+00  0.00000000E+00  0.00000000E+00
  0.00000000E+00  0.00000000E+00  0.00000000E+00
  0.00000000E+00  0.00000000E+00  0.00000000E+00
  0.00000000E+00  0.00000000E+00  0.00000000E+00
  0.00000000E+00  0.00000000E+00  0.00000000E+00
  0.00000000E+00  0.00000000E+00  0.00000000E+00
  0.00000000E+00  0.00000000E+00  0.00000000E+00
  0.00000000E+00  0.00000000E+00  0.00000000E+00
  0.00000000E+00  0.00000000E+00  0.00000000E+00
  0.00000000E+00  0.00000000E+00  0.00000000E+00
  0.00000000E+00  0.00000000E+00  0.00000000E+00
  0.00000000E+00  0.00000000E+00  0.00000000E+00
  0.00000000E+00  0.00000000E+00  0.00000000E+00
  0.00000000E+00  0.00000000E+00  0.00000000E+00
  0.00000000E+00  0.00000000E+00  0.00000000E+00
  0.00000000E+00  0.00000000E+00  0.00000000E+00
  0.00000000E+00  0.00000000E+00  0.00000000E+00
  0.00000000E+00  0.00000000E+00  0.00000000E+00
  0.00000000E+00  0.00000000E+00  0.00000000E+00
  0.00000000E+00  0.00000000E+00  0.00000000E+00
  0.00000000E+00  0.00000000E+00  0.00000000E+00
  0.00000000E+00  0.00000000E+00  0.00000000E+00
  0.00000000E+00  0.00000000E+00  0.00000000E+00
  0.00000000E+00  0.00000000E+00  0.00000000E+00
  0.00000000E+00  0.00000000E+00  0.00000000E+00
  0.00000000E+00  0.00000000E+00  0.00000000E+00
  0.00000000E+00  0.00000000E+00  0.00000000E+00
  0.00000000E+00  0.00000000E+00  0.00000000E+00
  0.00000000E+00  0.00000000E+00  0.00000000E+00
  0.00000000E+00  0.00000000E+00  0.00000000E+00
  0.00000000E+00  0.00000000E+00  0.00000000E+00
  0.00000000E+00  0.00000000E+00  0.00000000E+00
  0.00000000E+00  0.00000000E+00  0.00000000E+00
  0.00000000E+00  0.00000000E+00  0.00000000E+00
  0.00000000E+00  0.00000000E+00  0.00000000E+00
  0.00000000E+00  0.00000000E+00  0.00000000E+00
  0.00000000E+00  0.00000000E+00  0.00000000E+00
  0.00000000E+00  0.00000000E+00  0.00000000E+00
  0.00000000E+00  0.00000000E+00  0.00000000E+00
  0.00000000E+00  0.00000000E+00  0.00000000E+00
  0.00000000E+00  0.00000000E+00  0.00000000E+00
  0.00000000E+00  0.00000000E+00  0.00000000E+00
  0.00000000E+00  0.00000000E+00  0.00000000E+00
  0.00000000E+00  0.00000000E+00  0.00000000E+00
  0.00000000E+00  0.00000000E+00  0.00000000E+00
  0.00000000E+00  0.00000000E+00  0.00000000E+00
  0.00000000E+00  0.00000000E+00  0.00000000E+00
  0.00000000E+00  0.00000000E+00  0.00000000E+00
  0.00000000E+00  0.00000000E+00  0.00000000E+00
  0.00000000E+00  0.00000000E+00  0.00000000E+00
  0.00000000E+00  0.00000000E+00  0.00000000E+00
  0.00000000E+00  0.00000000E+00  0.00000000E+00
  0.00000000E+00  0.00000000E+00  0.00000000E+00
  0.00000000E+00  0.00000000E+00  0.00000000E+00
  0.00000000E+00  0.00000000E+00  0.00000000E+00
  0.00000000E+00  0.00000000E+00  0.00000000E+00
  0.00000000E+00  0.00000000E+00  0.00000000E+00
  0.00000000E+00  0.00000000E+00  0.00000000E+00
  0.00000000E+00  0.00000000E+00  0.00000000E+00
  0.00000000E+00  0.00000000E+00  0.00000000E+00
  0.00000000E+00  0.00000000E+00  0.00000000E+00
  0.00000000E+00  0.00000000E+00  0.00000000E+00
  0.00000000E+00  0.00000000E+00  0.00000000E+00
  0.00000000E+00  0.00000000E+00  0.00000000E+00
  0.00000000E+00  0.00000000E+00  0.00000000E+00
  0.00000000E+00  0.00000000E+00  0.00000000E+00
  0.00000000E+00  0.00000000E+00  0.00000000E+00
  0.00000000E+00  0.00000000E+00  0.00000000E+00
  0.00000000E+00  0.00000000E+00  0.00000000E+00
  0.00000000E+00  0.00000000E+00  0.00000000E+00
  0.00000000E+00  0.00000000E+00  0.00000000E+00
  0.00000000E+00  0.00000000E+00  0.00000000E+00
  0.00000000E+00  0.00000000E+00  0.00000000E+00
  0.00000000E+00  0.00000000E+00  0.00000000E+00
  0.00000000E+00  0.00000000E+00  0.00000000E+00
  0.00000000E+00  0.00000000E+00  0.00000000E+00
  0.00000000E+00  0.00000000E+00  0.00000000E+00
  0.00000000E+00  0.00000000E+00  0.00000000E+00
