CIF file                                
   1.00000000000000     
    11.3519997597000071    0.0000000000000000    0.0000000000000000
     0.0000000000000000   11.3519997597000071    0.0000000000000000
     0.0000000000000000    0.0000000000000000    9.6265001297000055
   Ti   O    N 
    36    72     1
Direct
  0.1632120472968031  0.0025387963161095  0.7505568055677720
  0.4941581108086268  0.0007328921312137  0.7488372956576854
  0.8320593305159454  0.0007394185091266  0.7511331982139637
  0.1627882748311670  0.3336272636286117  0.7496729136836346
  0.4901148575911598  0.3335020563709870  0.7456587452372944
  0.8358739302555620  0.3334242673477260  0.7443372637863810
  0.1630657674017200  0.6645586607248375  0.7506385241313925
  0.4942036171445656  0.6660555068163245  0.7490368197613217
  0.8318598382198663  0.6657673909346080  0.7510271505907085
  0.9976054515926966  0.1647022607750957  0.2517572663014677
  0.3276532044107116  0.1670966081760376  0.2495976912915299
  0.6587381402609105  0.1396561505846278  0.2590810562493012
  0.9974475554819038  0.5015495340439295  0.2516939799028969
  0.3276025562725821  0.4995946194869944  0.2496611572203135
  0.6586670405335380  0.5259705352100644  0.2581539459217018
  0.9865010297367734  0.8331747128682827  0.2437616634136338
  0.3395959830738243  0.8332787117130290  0.2444227388496312
  0.6627833331972488  0.8329745528101132  0.2570803702662756
  0.9968183852280293  0.0006922527949959  0.9996247619780816
  0.3291016180732266  0.0006947775984430  0.9992509318270335
  0.6626936718978429  0.9988782264876586  0.9900440226801005
  0.9974050379071393  0.3331769326900673  0.0016315229389894
  0.3288718442660637  0.3333051934963963  0.0005956477932294
  0.6622203947681158  0.3326643701576704  0.9754011800945831
  0.9966475388830893  0.6656394628571662  0.9995952677886117
  0.3291027592238260  0.6658721336826284  0.9991552820931328
  0.6628019964450226  0.6716513438457917  0.9897958346716177
  0.1638180355892426  0.1674997051774004  0.5012837327228142
  0.4941393865834276  0.1670785646199108  0.5014069816097918
  0.8329823125341973  0.1642767777159947  0.5017697732554551
  0.1637126514455261  0.4997404483668635  0.5011206419296463
  0.4942820210489580  0.5001499923607656  0.5013160521781699
  0.8326709641625624  0.5025521475745427  0.5014008494815207
  0.1623432644223019  0.8335698214209354  0.5093171835395696
  0.4921678638028712  0.8334778727957409  0.5041044943393386
  0.8327390303734461  0.8334179215771825  0.5051816148098178
  0.9972639756849047  0.9998494977835846  0.7951146060118099
  0.3295859840591385  0.9997499617054803  0.7937957788197664
  0.6634001895783209  0.0012368551721136  0.7910485892102586
  0.9982432465123687  0.3335025138473531  0.7933788659154947
  0.3284736584026963  0.3336100665140058  0.7931758329221928
  0.6633082988554060  0.3335077988249930  0.7833954087030167
  0.9971499394787084  0.6671208926125692  0.7951746555685854
  0.3295337505483341  0.6672258596573114  0.7938906071232610
  0.6633839856671356  0.6664758296701423  0.7905546901762006
  0.1636711625100965  0.1667447887680170  0.2951487354618277
  0.4971051084277830  0.1659743267131703  0.2934565275249316
  0.8313908305089285  0.1420229985804969  0.2981036547978552
  0.1635919980831903  0.4999269505973249  0.2950651830427861
  0.4969464144086659  0.5009122504820012  0.2935924841356414
  0.8312599762800084  0.5237811885620264  0.2978102384110711
  0.1630669599753421  0.8332726859521985  0.2766069363288217
  0.4974376460140529  0.8327775029817182  0.2966476801411131
  0.8274650969273448  0.8334458676036931  0.2939362836013009
  0.9957425211363026  0.1669005943007436  0.0472870241210384
  0.3304334246116499  0.1666041633013743  0.0447540382671952
  0.6628255510557707  0.1792254216625484  0.0619880107757452
  0.9957942324277064  0.4994912958409516  0.0471093852097435
  0.3306305360982923  0.4999952357428535  0.0446448213638743
  0.6621479846530132  0.4839916536873277  0.0631619624691961
  0.9824512690445401  0.8332211462078833  0.0396229787796699
  0.3373627108829731  0.8333276383398627  0.0407278823396989
  0.6667929753370589  0.8338644804632730  0.0306233188394054
  0.1631413200467329  0.0003883660374249  0.5439360125492064
  0.4955030317147071  0.9996167763074252  0.5431786955784188
  0.8322124623547313  0.9985009406072837  0.5468816493838221
  0.1650697174154154  0.3335270395170459  0.5455333306155149
  0.4961846944078370  0.3335003128908849  0.5408416820933120
  0.8296246471065655  0.3333781805951465  0.5373747318440082
  0.1630517116684354  0.6666478016412309  0.5439062489180028
  0.4953019279737351  0.6672923623844224  0.5433772978655230
  0.8322409288975471  0.6682717375484825  0.5467215670655097
  0.1633675880049936  0.9985213785348689  0.9566065267845495
  0.4972170943839086  0.0052117892171281  0.9543924274386575
  0.8289140749673855  0.0087443009227546  0.9571652880083086
  0.1631523026009400  0.3332409368154384  0.9573323615261000
  0.4956480264036704  0.3326179357381682  0.9506760820958702
  0.8311973482773900  0.3328950609137930  0.9499349430447906
  0.1632776731396257  0.6680687189698182  0.9566693508215831
  0.4973430961759728  0.6614315133662998  0.9545035988384135
  0.8287045916818621  0.6572101906436703  0.9570847632454353
  0.9978089923727494  0.1691082814390233  0.4577714762873281
  0.3302838494049580  0.1667715218191232  0.4555914333795173
  0.6635582253258477  0.1642454187485628  0.4581002671785441
  0.9977047455546513  0.4978682269223881  0.4576331449912325
  0.3302120353295993  0.5002311094493176  0.4555958158270755
  0.6634571966671214  0.5025550845297712  0.4579160970688991
  0.9987850920771112  0.8334599897336173  0.4504736742491449
  0.3263473707033900  0.8335107614665367  0.4513087101516682
  0.6636194159313172  0.8333462931466991  0.4564362520011546
  0.1638739456219199  0.1666697938128712  0.7072296679388729
  0.4952892002301901  0.1668830841270853  0.7048514120074563
  0.8320691427801290  0.1668557597726149  0.7055445198118716
  0.1637780904020020  0.5003932178162900  0.7072072182428220
  0.4953963701891673  0.5000345292009369  0.7050144253877227
  0.8319233038423463  0.4999220331588005  0.7054174511035611
  0.1632767629703388  0.8334979270680781  0.7059315756387675
  0.4959840531077237  0.8334905695378273  0.7069522705547385
  0.8313327260363549  0.8333971993447994  0.7091233326109657
  0.0075938977989653  0.9972841838096084  0.2056145480068657
  0.3253974690862386  0.9988707535557274  0.2064528455730602
  0.6515599084708940  0.9900213249782323  0.1984987379673340
  0.9965713961270068  0.3332011060369323  0.2103114236991283
  0.3309816635577800  0.3333417154982698  0.2063157231259854
  0.7810337376590967  0.3325257097678884  0.2214504218934536
  0.0070108566312328  0.6691222277554262  0.2056154039339146
  0.3250427403126480  0.6677624504249458  0.2063484604296855
  0.6529444727190409  0.6759849999887264  0.1978938613850575
  0.6877694960850695  0.3328713685290786  0.2693627299973316
 
  0.00000000E+00  0.00000000E+00  0.00000000E+00
  0.00000000E+00  0.00000000E+00  0.00000000E+00
  0.00000000E+00  0.00000000E+00  0.00000000E+00
  0.00000000E+00  0.00000000E+00  0.00000000E+00
  0.00000000E+00  0.00000000E+00  0.00000000E+00
  0.00000000E+00  0.00000000E+00  0.00000000E+00
  0.00000000E+00  0.00000000E+00  0.00000000E+00
  0.00000000E+00  0.00000000E+00  0.00000000E+00
  0.00000000E+00  0.00000000E+00  0.00000000E+00
  0.00000000E+00  0.00000000E+00  0.00000000E+00
  0.00000000E+00  0.00000000E+00  0.00000000E+00
  0.00000000E+00  0.00000000E+00  0.00000000E+00
  0.00000000E+00  0.00000000E+00  0.00000000E+00
  0.00000000E+00  0.00000000E+00  0.00000000E+00
  0.00000000E+00  0.00000000E+00  0.00000000E+00
  0.00000000E+00  0.00000000E+00  0.00000000E+00
  0.00000000E+00  0.00000000E+00  0.00000000E+00
  0.00000000E+00  0.00000000E+00  0.00000000E+00
  0.00000000E+00  0.00000000E+00  0.00000000E+00
  0.00000000E+00  0.00000000E+00  0.00000000E+00
  0.00000000E+00  0.00000000E+00  0.00000000E+00
  0.00000000E+00  0.00000000E+00  0.00000000E+00
  0.00000000E+00  0.00000000E+00  0.00000000E+00
  0.00000000E+00  0.00000000E+00  0.00000000E+00
  0.00000000E+00  0.00000000E+00  0.00000000E+00
  0.00000000E+00  0.00000000E+00  0.00000000E+00
  0.00000000E+00  0.00000000E+00  0.00000000E+00
  0.00000000E+00  0.00000000E+00  0.00000000E+00
  0.00000000E+00  0.00000000E+00  0.00000000E+00
  0.00000000E+00  0.00000000E+00  0.00000000E+00
  0.00000000E+00  0.00000000E+00  0.00000000E+00
  0.00000000E+00  0.00000000E+00  0.00000000E+00
  0.00000000E+00  0.00000000E+00  0.00000000E+00
  0.00000000E+00  0.00000000E+00  0.00000000E+00
  0.00000000E+00  0.00000000E+00  0.00000000E+00
  0.00000000E+00  0.00000000E+00  0.00000000E+00
  0.00000000E+00  0.00000000E+00  0.00000000E+00
  0.00000000E+00  0.00000000E+00  0.00000000E+00
  0.00000000E+00  0.00000000E+00  0.00000000E+00
  0.00000000E+00  0.00000000E+00  0.00000000E+00
  0.00000000E+00  0.00000000E+00  0.00000000E+00
  0.00000000E+00  0.00000000E+00  0.00000000E+00
  0.00000000E+00  0.00000000E+00  0.00000000E+00
  0.00000000E+00  0.00000000E+00  0.00000000E+00
  0.00000000E+00  0.00000000E+00  0.00000000E+00
  0.00000000E+00  0.00000000E+00  0.00000000E+00
  0.00000000E+00  0.00000000E+00  0.00000000E+00
  0.00000000E+00  0.00000000E+00  0.00000000E+00
  0.00000000E+00  0.00000000E+00  0.00000000E+00
  0.00000000E+00  0.00000000E+00  0.00000000E+00
  0.00000000E+00  0.00000000E+00  0.00000000E+00
  0.00000000E+00  0.00000000E+00  0.00000000E+00
  0.00000000E+00  0.00000000E+00  0.00000000E+00
  0.00000000E+00  0.00000000E+00  0.00000000E+00
  0.00000000E+00  0.00000000E+00  0.00000000E+00
  0.00000000E+00  0.00000000E+00  0.00000000E+00
  0.00000000E+00  0.00000000E+00  0.00000000E+00
  0.00000000E+00  0.00000000E+00  0.00000000E+00
  0.00000000E+00  0.00000000E+00  0.00000000E+00
  0.00000000E+00  0.00000000E+00  0.00000000E+00
  0.00000000E+00  0.00000000E+00  0.00000000E+00
  0.00000000E+00  0.00000000E+00  0.00000000E+00
  0.00000000E+00  0.00000000E+00  0.00000000E+00
  0.00000000E+00  0.00000000E+00  0.00000000E+00
  0.00000000E+00  0.00000000E+00  0.00000000E+00
  0.00000000E+00  0.00000000E+00  0.00000000E+00
  0.00000000E+00  0.00000000E+00  0.00000000E+00
  0.00000000E+00  0.00000000E+00  0.00000000E+00
  0.00000000E+00  0.00000000E+00  0.00000000E+00
  0.00000000E+00  0.00000000E+00  0.00000000E+00
  0.00000000E+00  0.00000000E+00  0.00000000E+00
  0.00000000E+00  0.00000000E+00  0.00000000E+00
  0.00000000E+00  0.00000000E+00  0.00000000E+00
  0.00000000E+00  0.00000000E+00  0.00000000E+00
  0.00000000E+00  0.00000000E+00  0.00000000E+00
  0.00000000E+00  0.00000000E+00  0.00000000E+00
  0.00000000E+00  0.00000000E+00  0.00000000E+00
  0.00000000E+00  0.00000000E+00  0.00000000E+00
  0.00000000E+00  0.00000000E+00  0.00000000E+00
  0.00000000E+00  0.00000000E+00  0.00000000E+00
  0.00000000E+00  0.00000000E+00  0.00000000E+00
  0.00000000E+00  0.00000000E+00  0.00000000E+00
  0.00000000E+00  0.00000000E+00  0.00000000E+00
  0.00000000E+00  0.00000000E+00  0.00000000E+00
  0.00000000E+00  0.00000000E+00  0.00000000E+00
  0.00000000E+00  0.00000000E+00  0.00000000E+00
  0.00000000E+00  0.00000000E+00  0.00000000E+00
  0.00000000E+00  0.00000000E+00  0.00000000E+00
  0.00000000E+00  0.00000000E+00  0.00000000E+00
  0.00000000E+00  0.00000000E+00  0.00000000E+00
  0.00000000E+00  0.00000000E+00  0.00000000E+00
  0.00000000E+00  0.00000000E+00  0.00000000E+00
  0.00000000E+00  0.00000000E+00  0.00000000E+00
  0.00000000E+00  0.00000000E+00  0.00000000E+00
  0.00000000E+00  0.00000000E+00  0.00000000E+00
  0.00000000E+00  0.00000000E+00  0.00000000E+00
  0.00000000E+00  0.00000000E+00  0.00000000E+00
  0.00000000E+00  0.00000000E+00  0.00000000E+00
  0.00000000E+00  0.00000000E+00  0.00000000E+00
  0.00000000E+00  0.00000000E+00  0.00000000E+00
  0.00000000E+00  0.00000000E+00  0.00000000E+00
  0.00000000E+00  0.00000000E+00  0.00000000E+00
  0.00000000E+00  0.00000000E+00  0.00000000E+00
  0.00000000E+00  0.00000000E+00  0.00000000E+00
  0.00000000E+00  0.00000000E+00  0.00000000E+00
  0.00000000E+00  0.00000000E+00  0.00000000E+00
  0.00000000E+00  0.00000000E+00  0.00000000E+00
  0.00000000E+00  0.00000000E+00  0.00000000E+00
  0.00000000E+00  0.00000000E+00  0.00000000E+00
