CIF file                                
   1.00000000000000     
    11.3519997597000071    0.0000000000000000    0.0000000000000000
     0.0000000000000000   11.3519997597000071    0.0000000000000000
     0.0000000000000000    0.0000000000000000    9.6265001297000055
   Ti   O    N 
    36    72     1
Direct
  0.1646043566195888  0.0003015075061018  0.7498282317679166
  0.4983326094894577  0.0002136039196802  0.7509669556800157
  0.8308642115797596  0.0000628262561728  0.7505266780139823
  0.1646011768096634  0.3333313561287753  0.7513127940830637
  0.4984591548953433  0.3333439707394356  0.7501857347380595
  0.8305802665853581  0.3333508657913343  0.7492168250304408
  0.1646246540099709  0.6664436371403522  0.7500390349055961
  0.4982716763511212  0.6665185171807478  0.7510320951196582
  0.8308697208471162  0.6665966481258414  0.7506922985315949
  0.9959137385050157  0.1657558327757496  0.2512888634009688
  0.3307668273295054  0.1658721997440200  0.2516079876733454
  0.6628436690872296  0.1683090700252445  0.2498164442476428
  0.9958307142972821  0.5007626479379617  0.2512496222480824
  0.3306547257710913  0.5008211434336026  0.2515819635051837
  0.6627415941127799  0.4981651653664833  0.2500600398417524
  0.9971364686389766  0.8332925289228119  0.2499600402747471
  0.3298268947077053  0.8334675627142202  0.2503155554156414
  0.6631145806562576  0.8332644263516205  0.2491106678649875
  0.9979132122368638  0.9999575224508073 -0.0000963344587222
  0.3309843714605337  0.0000831267617313  0.0001630991906677
  0.6646455335983046  0.0005522479639404  0.0017056822811982
  0.9969398518798813  0.3332677752524239 -0.0001462953786965
  0.3321896854739830  0.3333355525572041  0.0003628886367911
  0.6651158894550376  0.3332509223100074  0.0030014425287227
  0.9978799374925950  0.6666611919716684 -0.0000040463971756
  0.3309940213943049  0.6667118247582647  0.0003873724068277
  0.6645440763462832  0.6658989964466605  0.0018121603925408
  0.1635381391301130  0.1673863405682411  0.5008481281645706
  0.4964153652847698  0.1664924785512280  0.4999015786882274
  0.8306906034118288  0.1662128679422742  0.4995459117996615
  0.1633693583091017  0.4994065435580186  0.5008999413597967
  0.4961377045064853  0.5002934954563721  0.5000776152813370
  0.8305607095747601  0.5005786594790148  0.4996452326231957
  0.1635194856172043  0.8333119977214870  0.5006947774821707
  0.4971208199507095  0.8333824803048065  0.5007106808674027
  0.8299515613808545  0.8333232738919976  0.4999920078327826
  0.9982046595137415  0.0004045439339610  0.7935777234634028
  0.3315624519290813  0.0001113567705356  0.7941075017676209
  0.6648435215917579  0.9996343818426561  0.7946190911118909
  0.9990472929682016  0.3332784082585944  0.7930389830713237
  0.3306552608792357  0.3333392092581296  0.7940514920741756
  0.6645074700807935  0.3334398832676692  0.7939633144870949
  0.9981928121056534  0.6663361883124781  0.7937272069856758
  0.3315306207015731  0.6666889192955464  0.7943085842061640
  0.6648090713934455  0.6669558999403822  0.7947028977945386
  0.1638734571213934  0.1678551582979679  0.2957622392981429
  0.4939886213304222  0.1484073385198404  0.2983338027371320
  0.8333023137810677  0.1480551622115455  0.2979621595098347
  0.1638065958589442  0.4992355465630817  0.2955445717400375
  0.4939101502313352  0.5176152006094290  0.2984955567814514
  0.8331278919566713  0.5180451805218913  0.2980214173120870
  0.1639251146166416  0.8329011479164505  0.2962928055612561
  0.4963628769831641  0.8337296444858545  0.2946472250739260
  0.8310067290317713  0.8334445633213466  0.2934810400996418
  0.9979411614082306  0.1667364897425569  0.0454718331005547
  0.3316892928921041  0.1668002573655307  0.0457905956159599
  0.6686407831258221  0.1650054890120810  0.0417948561988215
  0.9982881687011228  0.4998450190386668  0.0454277568130776
  0.3313194114277233  0.4998663844927052  0.0457877921112123
  0.6684909475097878  0.5015616595379065  0.0421510618922434
  0.9981206338179778  0.8333142162538231  0.0433710059764721
  0.3326162165054001  0.8333896313181713  0.0436041241527616
  0.6659918814615691  0.8332410504414302  0.0443222056518090
  0.1640834519708649  1.0000104917610217  0.5441049687254674
  0.4990829256724541  0.9996087567528952  0.5458721610839059
  0.8291643769801084  0.9995065941656757  0.5451904624893574
  0.1641529792057024  0.3333764539018305  0.5455730571349356
  0.4956259161208798  0.3333924127034213  0.5419410555348192
  0.8320191012306651  0.3333981610677275  0.5410415207654142
  0.1640661833879055  0.6666933135990385  0.5443283548274502
  0.4987227929331671  0.6671497166085550  0.5459695980043546
  0.8295900008781605  0.6671938365524405  0.5453081219572147
  0.1648084103610845  0.9999907165230864  0.9551537464955968
  0.4978346427768933  0.0002196912240671  0.9570595614780852
  0.8321409377855372  0.9988316193009521  0.9562444017024010
  0.1646766800037964  0.3330485849908741  0.9574020307825164
  0.4957392889209297  0.3332823324134715  0.9517456944853180
  0.8341690388303746  0.3334081408857676  0.9502313036518611
  0.1648023686617556  0.6668714709040329  0.9553806199511246
  0.4978105411668596  0.6663025093746262  0.9571133878762872
  0.8320811349812823  0.6675949660861117  0.9563996636652666
  0.9978597827707057  0.1681127693595507  0.4582614453112999
  0.3299870415418591  0.1679778511198960  0.4587705538410032
  0.6640708572592171  0.1734704532561715  0.4539423156855764
  0.9978373282387365  0.4986062601818386  0.4581273174907899
  0.3297708120003288  0.4988319413383026  0.4587816671556205
  0.6639592445953006  0.4941143833442936  0.4543904988678598
  0.9969805452637359  0.8334059343508076  0.4565206995985770
  0.3308933424149069  0.8334534857728330  0.4571537293630759
  0.6639993026567145  0.8330973742580562  0.4555379086046903
  0.1651126872530445  0.1664355814115765  0.7070565977800913
  0.4983825929091086  0.1664880658563712  0.7063497612665816
  0.8313117738732229  0.1664180588356047  0.7058465891864294
  0.1650311653518984  0.5002661197852843  0.7071301391650650
  0.4981495156561485  0.5002294187783570  0.7065082989408509
  0.8314098412129958  0.5002812078476213  0.7059882899863987
  0.1648519183600883  0.8333594326092091  0.7066012704181833
  0.4979375454133875  0.8333717016596832  0.7071381225676944
  0.8320877668863704  0.8333319520509797  0.7062253749905205
  0.0019721929533655  0.9989637467969962  0.2047660791263105
  0.3243555041532069  0.9990207912303201  0.2049248171302762
  0.6611615847361642  0.9994905208305697  0.2056323982171695
  0.9912341999478982  0.3332900871761981  0.2083376673485982
  0.3359752552228066  0.3333243428388994  0.2089774287580456
  0.7337840368035893  0.3331592842000273  0.2008441997415798
  0.0012512010269275  0.6676410094523348  0.2048534100493575
  0.3255568754167813  0.6677484321803903  0.2050712408560132
  0.6608160538595956  0.6670955752537010  0.2058863808726699
  0.6080531512986840  0.3332490442053410  0.2036635668359820
 
  0.00000000E+00  0.00000000E+00  0.00000000E+00
  0.00000000E+00  0.00000000E+00  0.00000000E+00
  0.00000000E+00  0.00000000E+00  0.00000000E+00
  0.00000000E+00  0.00000000E+00  0.00000000E+00
  0.00000000E+00  0.00000000E+00  0.00000000E+00
  0.00000000E+00  0.00000000E+00  0.00000000E+00
  0.00000000E+00  0.00000000E+00  0.00000000E+00
  0.00000000E+00  0.00000000E+00  0.00000000E+00
  0.00000000E+00  0.00000000E+00  0.00000000E+00
  0.00000000E+00  0.00000000E+00  0.00000000E+00
  0.00000000E+00  0.00000000E+00  0.00000000E+00
  0.00000000E+00  0.00000000E+00  0.00000000E+00
  0.00000000E+00  0.00000000E+00  0.00000000E+00
  0.00000000E+00  0.00000000E+00  0.00000000E+00
  0.00000000E+00  0.00000000E+00  0.00000000E+00
  0.00000000E+00  0.00000000E+00  0.00000000E+00
  0.00000000E+00  0.00000000E+00  0.00000000E+00
  0.00000000E+00  0.00000000E+00  0.00000000E+00
  0.00000000E+00  0.00000000E+00  0.00000000E+00
  0.00000000E+00  0.00000000E+00  0.00000000E+00
  0.00000000E+00  0.00000000E+00  0.00000000E+00
  0.00000000E+00  0.00000000E+00  0.00000000E+00
  0.00000000E+00  0.00000000E+00  0.00000000E+00
  0.00000000E+00  0.00000000E+00  0.00000000E+00
  0.00000000E+00  0.00000000E+00  0.00000000E+00
  0.00000000E+00  0.00000000E+00  0.00000000E+00
  0.00000000E+00  0.00000000E+00  0.00000000E+00
  0.00000000E+00  0.00000000E+00  0.00000000E+00
  0.00000000E+00  0.00000000E+00  0.00000000E+00
  0.00000000E+00  0.00000000E+00  0.00000000E+00
  0.00000000E+00  0.00000000E+00  0.00000000E+00
  0.00000000E+00  0.00000000E+00  0.00000000E+00
  0.00000000E+00  0.00000000E+00  0.00000000E+00
  0.00000000E+00  0.00000000E+00  0.00000000E+00
  0.00000000E+00  0.00000000E+00  0.00000000E+00
  0.00000000E+00  0.00000000E+00  0.00000000E+00
  0.00000000E+00  0.00000000E+00  0.00000000E+00
  0.00000000E+00  0.00000000E+00  0.00000000E+00
  0.00000000E+00  0.00000000E+00  0.00000000E+00
  0.00000000E+00  0.00000000E+00  0.00000000E+00
  0.00000000E+00  0.00000000E+00  0.00000000E+00
  0.00000000E+00  0.00000000E+00  0.00000000E+00
  0.00000000E+00  0.00000000E+00  0.00000000E+00
  0.00000000E+00  0.00000000E+00  0.00000000E+00
  0.00000000E+00  0.00000000E+00  0.00000000E+00
  0.00000000E+00  0.00000000E+00  0.00000000E+00
  0.00000000E+00  0.00000000E+00  0.00000000E+00
  0.00000000E+00  0.00000000E+00  0.00000000E+00
  0.00000000E+00  0.00000000E+00  0.00000000E+00
  0.00000000E+00  0.00000000E+00  0.00000000E+00
  0.00000000E+00  0.00000000E+00  0.00000000E+00
  0.00000000E+00  0.00000000E+00  0.00000000E+00
  0.00000000E+00  0.00000000E+00  0.00000000E+00
  0.00000000E+00  0.00000000E+00  0.00000000E+00
  0.00000000E+00  0.00000000E+00  0.00000000E+00
  0.00000000E+00  0.00000000E+00  0.00000000E+00
  0.00000000E+00  0.00000000E+00  0.00000000E+00
  0.00000000E+00  0.00000000E+00  0.00000000E+00
  0.00000000E+00  0.00000000E+00  0.00000000E+00
  0.00000000E+00  0.00000000E+00  0.00000000E+00
  0.00000000E+00  0.00000000E+00  0.00000000E+00
  0.00000000E+00  0.00000000E+00  0.00000000E+00
  0.00000000E+00  0.00000000E+00  0.00000000E+00
  0.00000000E+00  0.00000000E+00  0.00000000E+00
  0.00000000E+00  0.00000000E+00  0.00000000E+00
  0.00000000E+00  0.00000000E+00  0.00000000E+00
  0.00000000E+00  0.00000000E+00  0.00000000E+00
  0.00000000E+00  0.00000000E+00  0.00000000E+00
  0.00000000E+00  0.00000000E+00  0.00000000E+00
  0.00000000E+00  0.00000000E+00  0.00000000E+00
  0.00000000E+00  0.00000000E+00  0.00000000E+00
  0.00000000E+00  0.00000000E+00  0.00000000E+00
  0.00000000E+00  0.00000000E+00  0.00000000E+00
  0.00000000E+00  0.00000000E+00  0.00000000E+00
  0.00000000E+00  0.00000000E+00  0.00000000E+00
  0.00000000E+00  0.00000000E+00  0.00000000E+00
  0.00000000E+00  0.00000000E+00  0.00000000E+00
  0.00000000E+00  0.00000000E+00  0.00000000E+00
  0.00000000E+00  0.00000000E+00  0.00000000E+00
  0.00000000E+00  0.00000000E+00  0.00000000E+00
  0.00000000E+00  0.00000000E+00  0.00000000E+00
  0.00000000E+00  0.00000000E+00  0.00000000E+00
  0.00000000E+00  0.00000000E+00  0.00000000E+00
  0.00000000E+00  0.00000000E+00  0.00000000E+00
  0.00000000E+00  0.00000000E+00  0.00000000E+00
  0.00000000E+00  0.00000000E+00  0.00000000E+00
  0.00000000E+00  0.00000000E+00  0.00000000E+00
  0.00000000E+00  0.00000000E+00  0.00000000E+00
  0.00000000E+00  0.00000000E+00  0.00000000E+00
  0.00000000E+00  0.00000000E+00  0.00000000E+00
  0.00000000E+00  0.00000000E+00  0.00000000E+00
  0.00000000E+00  0.00000000E+00  0.00000000E+00
  0.00000000E+00  0.00000000E+00  0.00000000E+00
  0.00000000E+00  0.00000000E+00  0.00000000E+00
  0.00000000E+00  0.00000000E+00  0.00000000E+00
  0.00000000E+00  0.00000000E+00  0.00000000E+00
  0.00000000E+00  0.00000000E+00  0.00000000E+00
  0.00000000E+00  0.00000000E+00  0.00000000E+00
  0.00000000E+00  0.00000000E+00  0.00000000E+00
  0.00000000E+00  0.00000000E+00  0.00000000E+00
  0.00000000E+00  0.00000000E+00  0.00000000E+00
  0.00000000E+00  0.00000000E+00  0.00000000E+00
  0.00000000E+00  0.00000000E+00  0.00000000E+00
  0.00000000E+00  0.00000000E+00  0.00000000E+00
  0.00000000E+00  0.00000000E+00  0.00000000E+00
  0.00000000E+00  0.00000000E+00  0.00000000E+00
  0.00000000E+00  0.00000000E+00  0.00000000E+00
  0.00000000E+00  0.00000000E+00  0.00000000E+00
  0.00000000E+00  0.00000000E+00  0.00000000E+00
