CIF file                                
   1.00000000000000     
    11.3519997597000071    0.0000000000000000    0.0000000000000000
     0.0000000000000000   11.3519997597000071    0.0000000000000000
     0.0000000000000000    0.0000000000000000    9.6265001297000055
   Ti   O    N 
    36    72     1
Direct
  0.1645898297388713  0.0002609452211692  0.7499529297982581
  0.4982738367312131  0.0001521406625825  0.7509648237846478
  0.8308969269543822  0.9999971258273809  0.7505571868904457
  0.1645897974369465  0.3333790994432987  0.7512220142172025
  0.4983968620104722  0.3333420363617372  0.7500273788687924
  0.8306242295136496  0.3333274146289138  0.7490781495871869
  0.1645898281768536  0.6665533819056348  0.7501063286248473
  0.4981928055190142  0.6665503851336130  0.7510068825859851
  0.8308738900959118  0.6666436079146715  0.7506214743554803
  0.9959920817474389  0.1657358725665390  0.2512577345800061
  0.3307801467051825  0.1658082123396232  0.2515568084995199
  0.6628612713628620  0.1683380356623346  0.2499240860249023
  0.9959087688552707  0.5008724758692734  0.2511658695506523
  0.3306827234944997  0.5008890455358666  0.2514441775536463
  0.6627896137763133  0.4981242126810907  0.2500749937762671
  0.9971741906560492  0.8333141331804668  0.2500764007390143
  0.3297839943863088  0.8334126279242710  0.2504078072179142
  0.6630676655593882  0.8332236297446198  0.2492658133835280
  0.9979400754827324  0.9999113372365405 -0.0000607931257462
  0.3309710186636783  0.0000274272947013  0.0001687089248524
  0.6646522042653414  0.0004695589483189  0.0014446394712038
  0.9969480940362607  0.3332680331026723 -0.0001261324769183
  0.3321360853895200  0.3333199687091888  0.0003716304472274
  0.6650797311965345  0.3332245213028823  0.0027269984551240
  0.9978847023132622  0.6667258383275623 -0.0000577805637343
  0.3309371514969806  0.6667670404861389  0.0003045546025882
  0.6645690687528162  0.6659477339403603  0.0014376241210162
  0.1636235593650401  0.1673861084675791  0.5010371501231069
  0.4964435492612855  0.1664164349168371  0.5000919717139855
  0.8308316168492871  0.1661296455834961  0.4997086306571924
  0.1635105233069891  0.4995530856408042  0.5010278015000352
  0.4962466623638077  0.5003385377779409  0.5001568792847280
  0.8307609159526360  0.5005926992668749  0.4997667266547229
  0.1635522921582206  0.8334044081916550  0.5007247848925378
  0.4971280903484371  0.8333619664813453  0.5007660533766931
  0.8299847116584443  0.8333206368876224  0.5000298489233165
  0.9981520044201251  0.0003636421068588  0.7936643067633073
  0.3315058427469606  0.0001363028443710  0.7941258802304956
  0.6647918125753723  0.9996584285086291  0.7945641747108474
  0.9990058552518368  0.3332712275039248  0.7929443386306227
  0.3306226243525928  0.3332995397018468  0.7939501388667970
  0.6644777385133406  0.3333892376797910  0.7937715347783528
  0.9981264260838746  0.6664449813245705  0.7936813877759621
  0.3314662514589730  0.6667486243246393  0.7942597281180394
  0.6647501760353171  0.6669394554821905  0.7945551470637909
  0.1639193716344896  0.1681069543843854  0.2954744971735119
  0.4941430348130821  0.1486369265886109  0.2981926875432357
  0.8331917096403444  0.1482159516403309  0.2978100182027288
  0.1638411598634837  0.4989980067308628  0.2952548300726222
  0.4940943793104742  0.5176269910865042  0.2982802268131777
  0.8330457952081254  0.5179424365999550  0.2978474717227582
  0.1639272339204626  0.8329933440077146  0.2959579923042948
  0.4964673181835574  0.8335424001718399  0.2942985242290804
  0.8309068548730095  0.8334202137440080  0.2931554411324693
  0.9980571765967335  0.1668142415515847  0.0454732373162375
  0.3314675492487887  0.1668670924495139  0.0457725633172471
  0.6684142773357140  0.1651305050644350  0.0417789126472156
  0.9982464906752001  0.4997862285674207  0.0453462720498830
  0.3311206281050337  0.4997986485019862  0.0456591408284952
  0.6683381417047769  0.5013864833233656  0.0419134437474246
  0.9982020624053161  0.8333326690461214  0.0433783310479737
  0.3322835221916450  0.8333861736471282  0.0435800494820439
  0.6657127190426002  0.8332409776882660  0.0441903684001336
  0.1641045131680796  0.0001034384604947  0.5440435247686247
  0.4990211507418360  0.9996168427363957  0.5457644648733320
  0.8292685228848551  0.9995157540472512  0.5451352530025864
  0.1641600640457723  0.3334295890661568  0.5453630047243139
  0.4957731425924676  0.3333776460355660  0.5416318447987627
  0.8319797837153323  0.3333711387095922  0.5406768095025227
  0.1641233656044089  0.6666773893853799  0.5442584938982887
  0.4988130243829126  0.6670904512066843  0.5458526152148351
  0.8294855919436525  0.6671492974913897  0.5451801404143714
  0.1647639580717113  0.0000565878142163  0.9555204349669235
  0.4978800666704135  0.0002631284390018  0.9573038739604268
  0.8319807265955904  0.9989042034774513  0.9565885990927352
  0.1646306019061806  0.3330884226558464  0.9575878166308047
  0.4958227743956776  0.3332813995089138  0.9517681885750452
  0.8340121632905111  0.3332955340261872  0.9502429398134369
  0.1647136493364636  0.6667924866046648  0.9556937436164973
  0.4978475033221487  0.6662440314146243  0.9573498364539799
  0.8319158563424005  0.6676259526710532  0.9566359349149730
  0.9978951370921230  0.1677799159487682  0.4582403701145503
  0.3299995648358709  0.1676663360168440  0.4587833992226905
  0.6640922603440491  0.1726053500893435  0.4540718133537184
  0.9978808268275698  0.4990539558342754  0.4581053640159465
  0.3298299453690205  0.4991585545201749  0.4586896165512567
  0.6640045106198289  0.4945283667472390  0.4543333086121463
  0.9969802230109870  0.8333584406790849  0.4565206128818003
  0.3308810674017725  0.8333914888460086  0.4571419897728866
  0.6639790857488946  0.8331325604209013  0.4554614051576506
  0.1650268748809335  0.1665411623879927  0.7071757831144528
  0.4983666668817783  0.1665543769035535  0.7065106729783800
  0.8312607946491076  0.1664763493789171  0.7060027788075781
  0.1649960515853325  0.5002254771912619  0.7072701867602789
  0.4981244263191784  0.5001406890641221  0.7066306706383478
  0.8313897769865816  0.5001925758411447  0.7061276952899329
  0.1648183806627671  0.8334064496283742  0.7067889966747708
  0.4979495208654239  0.8333597991803208  0.7073689042540192
  0.8319137315545390  0.8333316320992935  0.7064879583321789
  0.0019817400840529  0.9990665017784537  0.2051336261402825
  0.3247586278633996  0.9990946794830871  0.2053009445608070
  0.6612298072577693  0.9995657404199042  0.2056887661203329
  0.9912562133620756  0.3333153892991664  0.2085834579703688
  0.3361224647041834  0.3333463358366769  0.2091672419685167
  0.7339429934867209  0.3331768501461929  0.2007158569450542
  0.0013370557790942  0.6675613289567903  0.2051004403266826
  0.3255697325160167  0.6676420901372827  0.2053161298319251
  0.6610911360927809  0.6669593412151743  0.2057843562214662
  0.6081449191011996  0.3332512520956587  0.2037893321704312
 
  0.00000000E+00  0.00000000E+00  0.00000000E+00
  0.00000000E+00  0.00000000E+00  0.00000000E+00
  0.00000000E+00  0.00000000E+00  0.00000000E+00
  0.00000000E+00  0.00000000E+00  0.00000000E+00
  0.00000000E+00  0.00000000E+00  0.00000000E+00
  0.00000000E+00  0.00000000E+00  0.00000000E+00
  0.00000000E+00  0.00000000E+00  0.00000000E+00
  0.00000000E+00  0.00000000E+00  0.00000000E+00
  0.00000000E+00  0.00000000E+00  0.00000000E+00
  0.00000000E+00  0.00000000E+00  0.00000000E+00
  0.00000000E+00  0.00000000E+00  0.00000000E+00
  0.00000000E+00  0.00000000E+00  0.00000000E+00
  0.00000000E+00  0.00000000E+00  0.00000000E+00
  0.00000000E+00  0.00000000E+00  0.00000000E+00
  0.00000000E+00  0.00000000E+00  0.00000000E+00
  0.00000000E+00  0.00000000E+00  0.00000000E+00
  0.00000000E+00  0.00000000E+00  0.00000000E+00
  0.00000000E+00  0.00000000E+00  0.00000000E+00
  0.00000000E+00  0.00000000E+00  0.00000000E+00
  0.00000000E+00  0.00000000E+00  0.00000000E+00
  0.00000000E+00  0.00000000E+00  0.00000000E+00
  0.00000000E+00  0.00000000E+00  0.00000000E+00
  0.00000000E+00  0.00000000E+00  0.00000000E+00
  0.00000000E+00  0.00000000E+00  0.00000000E+00
  0.00000000E+00  0.00000000E+00  0.00000000E+00
  0.00000000E+00  0.00000000E+00  0.00000000E+00
  0.00000000E+00  0.00000000E+00  0.00000000E+00
  0.00000000E+00  0.00000000E+00  0.00000000E+00
  0.00000000E+00  0.00000000E+00  0.00000000E+00
  0.00000000E+00  0.00000000E+00  0.00000000E+00
  0.00000000E+00  0.00000000E+00  0.00000000E+00
  0.00000000E+00  0.00000000E+00  0.00000000E+00
  0.00000000E+00  0.00000000E+00  0.00000000E+00
  0.00000000E+00  0.00000000E+00  0.00000000E+00
  0.00000000E+00  0.00000000E+00  0.00000000E+00
  0.00000000E+00  0.00000000E+00  0.00000000E+00
  0.00000000E+00  0.00000000E+00  0.00000000E+00
  0.00000000E+00  0.00000000E+00  0.00000000E+00
  0.00000000E+00  0.00000000E+00  0.00000000E+00
  0.00000000E+00  0.00000000E+00  0.00000000E+00
  0.00000000E+00  0.00000000E+00  0.00000000E+00
  0.00000000E+00  0.00000000E+00  0.00000000E+00
  0.00000000E+00  0.00000000E+00  0.00000000E+00
  0.00000000E+00  0.00000000E+00  0.00000000E+00
  0.00000000E+00  0.00000000E+00  0.00000000E+00
  0.00000000E+00  0.00000000E+00  0.00000000E+00
  0.00000000E+00  0.00000000E+00  0.00000000E+00
  0.00000000E+00  0.00000000E+00  0.00000000E+00
  0.00000000E+00  0.00000000E+00  0.00000000E+00
  0.00000000E+00  0.00000000E+00  0.00000000E+00
  0.00000000E+00  0.00000000E+00  0.00000000E+00
  0.00000000E+00  0.00000000E+00  0.00000000E+00
  0.00000000E+00  0.00000000E+00  0.00000000E+00
  0.00000000E+00  0.00000000E+00  0.00000000E+00
  0.00000000E+00  0.00000000E+00  0.00000000E+00
  0.00000000E+00  0.00000000E+00  0.00000000E+00
  0.00000000E+00  0.00000000E+00  0.00000000E+00
  0.00000000E+00  0.00000000E+00  0.00000000E+00
  0.00000000E+00  0.00000000E+00  0.00000000E+00
  0.00000000E+00  0.00000000E+00  0.00000000E+00
  0.00000000E+00  0.00000000E+00  0.00000000E+00
  0.00000000E+00  0.00000000E+00  0.00000000E+00
  0.00000000E+00  0.00000000E+00  0.00000000E+00
  0.00000000E+00  0.00000000E+00  0.00000000E+00
  0.00000000E+00  0.00000000E+00  0.00000000E+00
  0.00000000E+00  0.00000000E+00  0.00000000E+00
  0.00000000E+00  0.00000000E+00  0.00000000E+00
  0.00000000E+00  0.00000000E+00  0.00000000E+00
  0.00000000E+00  0.00000000E+00  0.00000000E+00
  0.00000000E+00  0.00000000E+00  0.00000000E+00
  0.00000000E+00  0.00000000E+00  0.00000000E+00
  0.00000000E+00  0.00000000E+00  0.00000000E+00
  0.00000000E+00  0.00000000E+00  0.00000000E+00
  0.00000000E+00  0.00000000E+00  0.00000000E+00
  0.00000000E+00  0.00000000E+00  0.00000000E+00
  0.00000000E+00  0.00000000E+00  0.00000000E+00
  0.00000000E+00  0.00000000E+00  0.00000000E+00
  0.00000000E+00  0.00000000E+00  0.00000000E+00
  0.00000000E+00  0.00000000E+00  0.00000000E+00
  0.00000000E+00  0.00000000E+00  0.00000000E+00
  0.00000000E+00  0.00000000E+00  0.00000000E+00
  0.00000000E+00  0.00000000E+00  0.00000000E+00
  0.00000000E+00  0.00000000E+00  0.00000000E+00
  0.00000000E+00  0.00000000E+00  0.00000000E+00
  0.00000000E+00  0.00000000E+00  0.00000000E+00
  0.00000000E+00  0.00000000E+00  0.00000000E+00
  0.00000000E+00  0.00000000E+00  0.00000000E+00
  0.00000000E+00  0.00000000E+00  0.00000000E+00
  0.00000000E+00  0.00000000E+00  0.00000000E+00
  0.00000000E+00  0.00000000E+00  0.00000000E+00
  0.00000000E+00  0.00000000E+00  0.00000000E+00
  0.00000000E+00  0.00000000E+00  0.00000000E+00
  0.00000000E+00  0.00000000E+00  0.00000000E+00
  0.00000000E+00  0.00000000E+00  0.00000000E+00
  0.00000000E+00  0.00000000E+00  0.00000000E+00
  0.00000000E+00  0.00000000E+00  0.00000000E+00
  0.00000000E+00  0.00000000E+00  0.00000000E+00
  0.00000000E+00  0.00000000E+00  0.00000000E+00
  0.00000000E+00  0.00000000E+00  0.00000000E+00
  0.00000000E+00  0.00000000E+00  0.00000000E+00
  0.00000000E+00  0.00000000E+00  0.00000000E+00
  0.00000000E+00  0.00000000E+00  0.00000000E+00
  0.00000000E+00  0.00000000E+00  0.00000000E+00
  0.00000000E+00  0.00000000E+00  0.00000000E+00
  0.00000000E+00  0.00000000E+00  0.00000000E+00
  0.00000000E+00  0.00000000E+00  0.00000000E+00
  0.00000000E+00  0.00000000E+00  0.00000000E+00
  0.00000000E+00  0.00000000E+00  0.00000000E+00
  0.00000000E+00  0.00000000E+00  0.00000000E+00
