CIF file                                
   1.00000000000000     
    11.3519997597000071    0.0000000000000000    0.0000000000000000
     0.0000000000000000   11.3519997597000071    0.0000000000000000
     0.0000000000000000    0.0000000000000000    9.6265001297000055
   Ti   O    N    Nb
    35    72     1     1
Direct
  0.1644771843156730 -0.0000572485224272  0.7501217511287258
  0.4978260907700928  0.9997485602033028  0.7513746667984255
  0.8310870249888717  0.9995667999955871  0.7511788611625489
  0.1644252868399633  0.3333520076124069  0.7482059653534546
  0.4936306335503999  0.3333584248897167  0.7438029664208126
  0.8349738461592855  0.3333565743338808  0.7428165186494964
  0.1644765620689032  0.6667781759141379  0.7502524819441209
  0.4978157015873511  0.6669797457812546  0.7514103842343672
  0.8310825058362437  0.6671358391660479  0.7512454390421711
  0.9964004502624509  0.1652807284672189  0.2513781058491706
  0.3305573117626827  0.1652904784363094  0.2516281739566109
  0.6629502946542818  0.1667258654954391  0.2547189248635726
  0.9963592690192627  0.5013431999924229  0.2513966018236617
  0.3305053073286994  0.5013453917150796  0.2516316094020652
  0.6628917787024905  0.4998068638526247  0.2548134222749896
  0.9974949508876051  0.8333311090905871  0.2498956315626255
  0.3296997017699180  0.8333552749369788  0.2503048312158482
  0.6631762573628337  0.8332887772090174  0.2516787739012837
  0.9980892115200050  0.9997817320028184  1.0000880123522233
  0.3307098526180424  0.9998349700841848  0.0003879716054885
  0.6645231828922459  0.9977403335028291  0.0009863783884019
  0.9995644742249615  0.3333144966542002  0.0014455594354497
  0.3296851284216393  0.3333371645651762  0.0020426212969908
  0.9980661441066397  0.6668495416675817  0.0001644700553544
  0.3307325195909896  0.6668637236534930  0.0004647976189059
  0.6645073016392383  0.6687726266627458  0.0010708227909901
  0.1637452421090760  0.1664876140553103  0.5010491482195630
  0.4955513347946663  0.1648868815575132  0.4997973699810312
  0.8319826118011175  0.1645411306166900  0.4995160512469934
  0.1636967916933181  0.5002640533388345  0.5010981030367503
  0.4954780358951735  0.5018442230701932  0.4998569934580228
  0.8319414182505203  0.5021884508224225  0.4995559436891962
  0.1636723155105100  0.8333351241414194  0.5006026679277815
  0.4965838126400896  0.8333644163710404  0.5005121018080154
  0.8308428109740940  0.8333466951881404  0.4998219273197894
  0.9979819663522037  0.0002564812362689  0.7939147152117690
  0.3314194907181922  0.0000842170049628  0.7943418745602294
  0.6646322896333989  0.9998760525360042  0.7948358810698565
  0.9995024701347013  0.3333241399081291  0.7920278147821965
  0.3297475530731123  0.3333383792202066  0.7931218331338209
  0.6639874957800787  0.3333471206130179  0.7898782338316191
  0.9979820793352646  0.6664440582689736  0.7940169426066103
  0.3314107067669318  0.6666519318235963  0.7944283219018139
  0.6646220688997432  0.6668011928466119  0.7948938260919222
  0.1638952850090492  0.1673944436137400  0.2954133698122569
  0.4941199696940383  0.1472172566819847  0.2985762245946743
  0.8333190223921200  0.1467307988889720  0.2985546354135060
  0.1638709861901185  0.4993988585011076  0.2954095103659804
  0.4940988363748808  0.5192022133342717  0.2986275622472090
  0.8332519161351747  0.5197930431753141  0.2985947515307769
  0.1639365818193794  0.8331235637740062  0.2960508266748863
  0.4963510977171277  0.8334540912334265  0.2947590793174493
  0.8310577580831848  0.8333610605322289  0.2937149335206372
  0.9975935460133790  0.1670558018103935  0.0455960285150942
  0.3317506057836771  0.1670566190522978  0.0460064062299996
  0.6684825399061204  0.1649039206190948  0.0429334250169643
  0.9976930266097683  0.4995796715905934  0.0456242156968787
  0.3315370328498160  0.4996022173941578  0.0459961080803817
  0.6684966788664326  0.5016781605763188  0.0431364363648610
  0.9976767803185129  0.8333306606916726  0.0431678171460921
  0.3324656576085642  0.8333617152221904  0.0434057854983972
  0.6655756452445508  0.8332640318137005  0.0435839783962020
  0.1639659708084389  0.9998688952243800  0.5442088532621092
  0.4987314179714452  0.9992703294543690  0.5460042515452360
  0.8297025000102353  0.9991217488148628  0.5456295102295697
  0.1642461694334948  0.3333686121555751  0.5451504241940411
  0.4950607204835310  0.3333591549410939  0.5402529272707943
  0.8325304419628777  0.3333635445898022  0.5392338085371783
  0.1639504131922905  0.6668420971532452  0.5443273297820079
  0.4986011095871577  0.6674440509489474  0.5460380100958936
  0.8298160566851333  0.6675764871236936  0.5456756913325010
  0.1646617430245870  0.0002894733287403  0.9555020104458060
  0.4979669168451170  0.0006352513498908  0.9573364788254911
  0.8316422530660599  0.9993264354110645  0.9567208767159598
  0.1645291579905812  0.3332778881010589  0.9573807877650816
  0.4940978842087397  0.3333674602190392  0.9494276900417462
  0.8355371865217772  0.3333565579417900  0.9475744225489807
  0.1646624902882776  0.6664744040017985  0.9556393350569475
  0.4979673921026463  0.6659561240128634  0.9573796452787794
  0.8316268662049636  0.6672477734832510  0.9567860636991580
  0.9980978266319130  0.1683085842042507  0.4584076825548839
  0.3298775726542393  0.1679362850066707  0.4588105293642152
  0.6640643665583350  0.1722703476802403  0.4554101231288342
  0.9980858557714423  0.4983902246515845  0.4584015067195035
  0.3298179813467172  0.4987885127223952  0.4588291465451144
  0.6640342107852434  0.4945859486497862  0.4555671014359525
  0.9970705301456558  0.8334047969766800  0.4563812655662454
  0.3307856497386446  0.8333740423701834  0.4570580945849834
  0.6640051109772780  0.8332543432071262  0.4555754785095546
  0.1649012339084633  0.1662690965744232  0.7068118169077369
  0.4977882633610992  0.1664147672644859  0.7060049380091407
  0.8314240188135515  0.1663780965309597  0.7056885305685698
  0.1648817324696458  0.5004381418608844  0.7068893598600877
  0.4977502170413921  0.5002930485833252  0.7060628798063014
  0.8314346222686021  0.5003283226260258  0.7057533566365123
  0.1647761079399025  0.8333524048819689  0.7066800058043056
  0.4978718522044673  0.8333563035160866  0.7075034525433473
  0.8316800160161862  0.8333444316861075  0.7068808144359262
  0.0020086095121635  0.9989998453618484  0.2048209515913259
  0.3251254380380826  0.9989613779366869  0.2050596913073918
  0.6613375536022877  0.9991688189068683  0.2053019991309428
  0.9911744290634614  0.3333174342680107  0.2082864019685837
  0.3363464313507429  0.3333298673816345  0.2089274276452655
  0.7350836230732886  0.3332400390090389  0.2040202532518358
  0.0017479631258855  0.6676321345724655  0.2048658109743592
  0.3255293803906094  0.6677138829910915  0.2050861919043197
  0.6612240398612157  0.6674341048951936  0.2054338835510116
  0.6084871193023843  0.3332663024943656  0.2092478310619290
  0.6652967864675483  0.3332640897800933  0.9990387705775120
 
  0.00000000E+00  0.00000000E+00  0.00000000E+00
  0.00000000E+00  0.00000000E+00  0.00000000E+00
  0.00000000E+00  0.00000000E+00  0.00000000E+00
  0.00000000E+00  0.00000000E+00  0.00000000E+00
  0.00000000E+00  0.00000000E+00  0.00000000E+00
  0.00000000E+00  0.00000000E+00  0.00000000E+00
  0.00000000E+00  0.00000000E+00  0.00000000E+00
  0.00000000E+00  0.00000000E+00  0.00000000E+00
  0.00000000E+00  0.00000000E+00  0.00000000E+00
  0.00000000E+00  0.00000000E+00  0.00000000E+00
  0.00000000E+00  0.00000000E+00  0.00000000E+00
  0.00000000E+00  0.00000000E+00  0.00000000E+00
  0.00000000E+00  0.00000000E+00  0.00000000E+00
  0.00000000E+00  0.00000000E+00  0.00000000E+00
  0.00000000E+00  0.00000000E+00  0.00000000E+00
  0.00000000E+00  0.00000000E+00  0.00000000E+00
  0.00000000E+00  0.00000000E+00  0.00000000E+00
  0.00000000E+00  0.00000000E+00  0.00000000E+00
  0.00000000E+00  0.00000000E+00  0.00000000E+00
  0.00000000E+00  0.00000000E+00  0.00000000E+00
  0.00000000E+00  0.00000000E+00  0.00000000E+00
  0.00000000E+00  0.00000000E+00  0.00000000E+00
  0.00000000E+00  0.00000000E+00  0.00000000E+00
  0.00000000E+00  0.00000000E+00  0.00000000E+00
  0.00000000E+00  0.00000000E+00  0.00000000E+00
  0.00000000E+00  0.00000000E+00  0.00000000E+00
  0.00000000E+00  0.00000000E+00  0.00000000E+00
  0.00000000E+00  0.00000000E+00  0.00000000E+00
  0.00000000E+00  0.00000000E+00  0.00000000E+00
  0.00000000E+00  0.00000000E+00  0.00000000E+00
  0.00000000E+00  0.00000000E+00  0.00000000E+00
  0.00000000E+00  0.00000000E+00  0.00000000E+00
  0.00000000E+00  0.00000000E+00  0.00000000E+00
  0.00000000E+00  0.00000000E+00  0.00000000E+00
  0.00000000E+00  0.00000000E+00  0.00000000E+00
  0.00000000E+00  0.00000000E+00  0.00000000E+00
  0.00000000E+00  0.00000000E+00  0.00000000E+00
  0.00000000E+00  0.00000000E+00  0.00000000E+00
  0.00000000E+00  0.00000000E+00  0.00000000E+00
  0.00000000E+00  0.00000000E+00  0.00000000E+00
  0.00000000E+00  0.00000000E+00  0.00000000E+00
  0.00000000E+00  0.00000000E+00  0.00000000E+00
  0.00000000E+00  0.00000000E+00  0.00000000E+00
  0.00000000E+00  0.00000000E+00  0.00000000E+00
  0.00000000E+00  0.00000000E+00  0.00000000E+00
  0.00000000E+00  0.00000000E+00  0.00000000E+00
  0.00000000E+00  0.00000000E+00  0.00000000E+00
  0.00000000E+00  0.00000000E+00  0.00000000E+00
  0.00000000E+00  0.00000000E+00  0.00000000E+00
  0.00000000E+00  0.00000000E+00  0.00000000E+00
  0.00000000E+00  0.00000000E+00  0.00000000E+00
  0.00000000E+00  0.00000000E+00  0.00000000E+00
  0.00000000E+00  0.00000000E+00  0.00000000E+00
  0.00000000E+00  0.00000000E+00  0.00000000E+00
  0.00000000E+00  0.00000000E+00  0.00000000E+00
  0.00000000E+00  0.00000000E+00  0.00000000E+00
  0.00000000E+00  0.00000000E+00  0.00000000E+00
  0.00000000E+00  0.00000000E+00  0.00000000E+00
  0.00000000E+00  0.00000000E+00  0.00000000E+00
  0.00000000E+00  0.00000000E+00  0.00000000E+00
  0.00000000E+00  0.00000000E+00  0.00000000E+00
  0.00000000E+00  0.00000000E+00  0.00000000E+00
  0.00000000E+00  0.00000000E+00  0.00000000E+00
  0.00000000E+00  0.00000000E+00  0.00000000E+00
  0.00000000E+00  0.00000000E+00  0.00000000E+00
  0.00000000E+00  0.00000000E+00  0.00000000E+00
  0.00000000E+00  0.00000000E+00  0.00000000E+00
  0.00000000E+00  0.00000000E+00  0.00000000E+00
  0.00000000E+00  0.00000000E+00  0.00000000E+00
  0.00000000E+00  0.00000000E+00  0.00000000E+00
  0.00000000E+00  0.00000000E+00  0.00000000E+00
  0.00000000E+00  0.00000000E+00  0.00000000E+00
  0.00000000E+00  0.00000000E+00  0.00000000E+00
  0.00000000E+00  0.00000000E+00  0.00000000E+00
  0.00000000E+00  0.00000000E+00  0.00000000E+00
  0.00000000E+00  0.00000000E+00  0.00000000E+00
  0.00000000E+00  0.00000000E+00  0.00000000E+00
  0.00000000E+00  0.00000000E+00  0.00000000E+00
  0.00000000E+00  0.00000000E+00  0.00000000E+00
  0.00000000E+00  0.00000000E+00  0.00000000E+00
  0.00000000E+00  0.00000000E+00  0.00000000E+00
  0.00000000E+00  0.00000000E+00  0.00000000E+00
  0.00000000E+00  0.00000000E+00  0.00000000E+00
  0.00000000E+00  0.00000000E+00  0.00000000E+00
  0.00000000E+00  0.00000000E+00  0.00000000E+00
  0.00000000E+00  0.00000000E+00  0.00000000E+00
  0.00000000E+00  0.00000000E+00  0.00000000E+00
  0.00000000E+00  0.00000000E+00  0.00000000E+00
  0.00000000E+00  0.00000000E+00  0.00000000E+00
  0.00000000E+00  0.00000000E+00  0.00000000E+00
  0.00000000E+00  0.00000000E+00  0.00000000E+00
  0.00000000E+00  0.00000000E+00  0.00000000E+00
  0.00000000E+00  0.00000000E+00  0.00000000E+00
  0.00000000E+00  0.00000000E+00  0.00000000E+00
  0.00000000E+00  0.00000000E+00  0.00000000E+00
  0.00000000E+00  0.00000000E+00  0.00000000E+00
  0.00000000E+00  0.00000000E+00  0.00000000E+00
  0.00000000E+00  0.00000000E+00  0.00000000E+00
  0.00000000E+00  0.00000000E+00  0.00000000E+00
  0.00000000E+00  0.00000000E+00  0.00000000E+00
  0.00000000E+00  0.00000000E+00  0.00000000E+00
  0.00000000E+00  0.00000000E+00  0.00000000E+00
  0.00000000E+00  0.00000000E+00  0.00000000E+00
  0.00000000E+00  0.00000000E+00  0.00000000E+00
  0.00000000E+00  0.00000000E+00  0.00000000E+00
  0.00000000E+00  0.00000000E+00  0.00000000E+00
  0.00000000E+00  0.00000000E+00  0.00000000E+00
  0.00000000E+00  0.00000000E+00  0.00000000E+00
  0.00000000E+00  0.00000000E+00  0.00000000E+00
