CIF file                                
   1.00000000000000     
    11.3519997597000071    0.0000000000000000    0.0000000000000000
     0.0000000000000000   11.3519997597000071    0.0000000000000000
     0.0000000000000000    0.0000000000000000    9.6265001297000055
   Ti   O    N    Nb
    35    72     1     1
Direct
  0.1643478430899173  0.9996791558003593  0.7500737286689418
  0.4967933436477209  0.9993951232234912  0.7514834972550710
  0.8318121857084100  0.9992698598461587  0.7514201682506058
  0.1645442092185575  0.3333670155607215  0.7464470940103085
  0.4893154683637173  0.3333341511903270  0.7393058950443168
  0.8396874514376717  0.3333538538581435  0.7386417112097518
  0.1643674954742165  0.6669979566878942  0.7501138377898388
  0.4968047921271380  0.6672310999431795  0.7513932283631053
  0.8318272930612469  0.6673895743250219  0.7513408666428598
  0.9972734800881338  0.1648700607252762  0.2513375004051327
  0.3307290295531802  0.1648444494046037  0.2516046345680770
  0.6641112598596762  0.1596215682171724  0.2568079965088217
  0.9972031940879732  0.5017230076604167  0.2512274447358432
  0.3306419920916084  0.5017292561417429  0.2514937646690955
  0.6640176346078770  0.5072337132982571  0.2566605736299633
  0.9977385731367058  0.8332986276785574  0.2495842924916493
  0.3295347263557115  0.8333040441830621  0.2499451443896988
  0.6633249186758960  0.8334356063054690  0.2517551773013691
  0.9982957171538053  0.9997762457377320  0.0003341640208098
  0.3302389346612516  0.9997742742122353  0.0006026620153430
  0.6642540665454891  0.9976106850929535  0.9979941537573601
  0.0003504068254644  0.3332923121869237  0.0027085495816623
  0.3283952877387251  0.3332858821469144  0.0031696472549410
  0.9982912501226948  0.6668599906453347  0.0002971634091955
  0.3302963268503885  0.6668594110670322  0.0005861353172576
  0.6642750355225239  0.6692495995049905  0.9979312333625581
  0.1638314058738793  0.1659419674710486  0.5010683336482579
  0.4950774629765758  0.1635141395458538  0.4996822593487915
  0.8326499258507972  0.1633549287515486  0.4996275697997529
  0.1637707572439805  0.5007585278349088  0.5009868679216736
  0.4950179169094920  0.5031249805001012  0.4995856775375422
  0.8325757775704004  0.5033054037331647  0.4995119971238850
  0.1637338329506454  0.8333274819472269  0.5003432922868722
  0.4962611390526487  0.8333444868077493  0.5000410156232518
  0.8313099111298662  0.8333448966098780  0.4995040836019428
  0.9978499283795786 -0.0000214169747766  0.7942081197005140
  0.3312565111287054  0.9999055081296059  0.7944178379462690
  0.6645492460935163  0.0009222232555409  0.7947395866744359
  0.0000696173798637  0.3333756682603555  0.7922963214725529
  0.3292756976336761  0.3333157516786267  0.7931065396461197
  0.6645153008288518  0.3333912607245065  0.7848022884407032
  0.9978581607911086  0.6666367755510074  0.7941767118819204
  0.3312692477220377  0.6667428281371360  0.7944087378604656
  0.6645487157182376  0.6657547195474127  0.7946755971824037
  0.1640837594681413  0.1673856594111548  0.2950323029516985
  0.4943590126848405  0.1453081623384836  0.2990474636880832
  0.8337070209480804  0.1446715143568378  0.2987833181409966
  0.1640391704201779  0.4993579205654592  0.2948878874683088
  0.4943323163808883  0.5211481408185007  0.2989303245368253
  0.8336160714752964  0.5218387170142181  0.2986178296089684
  0.1639824871968819  0.8331159729533765  0.2958115091684301
  0.4967442254495252  0.8334570800702333  0.2942016992600496
  0.8309210920270949  0.8333570528215717  0.2933795240806754
  0.9974683324617400  0.1673640418519669  0.0456009376273388
  0.3321533770770833  0.1673386580548963  0.0458974273394952
  0.6660067449674494  0.1704418257494618  0.0476158301214576
  0.9974628635321999  0.4992423193183158  0.0454906397377408
  0.3320057420446847  0.4992755501025696  0.0458338505382216
  0.6661613086865331  0.4963366571063355  0.0476218997881873
  0.9965873054750064  0.8333266569664647  0.0424459074383075
  0.3329652896618807  0.8333185614073854  0.0428846156148647
  0.6649989297514158  0.8333830183276746  0.0399891297694745
  0.1639968865300911  0.9997499548000244  0.5442761547673634
  0.4985131375956824  0.9989080009494328  0.5462556614452080
  0.8300412444669274  0.9988007418037039  0.5460574350826843
  0.1643051588974438  0.3333625376288025  0.5450144273794817
  0.4944693083904840  0.3333308953041140  0.5388557199116273
  0.8336649622929314  0.3333452437030840  0.5381209780370292
  0.1639863522893666  0.6669091083307221  0.5442963393037976
  0.4984868532002756  0.6677579746833148  0.5461345778048959
  0.8300760795620066  0.6678727780624258  0.5459181315624561
  0.1645534550276936  0.0005562427309475  0.9557520077239313
  0.4980870097024216  0.0019813668491990  0.9574050903227697
  0.8310243090262247  0.0017946395096510  0.9572890832401209
  0.1645330887556101  0.3332709468938998  0.9580440793101928
  0.4954434378493806  0.3334328315231472  0.9489527801808152
  0.8342194034624739  0.3333083943009999  0.9476707168830575
  0.1645637196882007  0.6661363942996886  0.9558097763181568
  0.4981229586717567  0.6646181372558980  0.9573287513878563
  0.8310168041002904  0.6649444907976556  0.9572042516882279
  0.9983294870406502  0.1682898304935278  0.4582679835462491
  0.3298811285834269  0.1679449585719663  0.4587180364138407
  0.6642764647026832  0.1710445055505455  0.4565062632878009
  0.9982818221855444  0.4983736985964001  0.4581098688983646
  0.3298219770187659  0.4987017841054985  0.4585745096770886
  0.6642366888128596  0.4957367728308258  0.4563695317553981
  0.9970125540659357  0.8333635657293186  0.4560302398015162
  0.3309633311831193  0.8333522672591217  0.4565932602167537
  0.6640933130015687  0.8333517520795364  0.4543585293381505
  0.1647885800833684  0.1662764142586264  0.7067181656501065
  0.4974403153845328  0.1665334975434135  0.7059593622623634
  0.8319932746640366  0.1664986549012563  0.7056397913980829
  0.1647848108264349  0.5004163532508976  0.7066762245445649
  0.4973844241235099  0.5001399115531020  0.7058225326549437
  0.8319578872462660  0.5001928491437473  0.7055206090653354
  0.1646923637327662  0.8333291737482701  0.7066456246204381
  0.4982281821941455  0.8333192476656049  0.7078430269116694
  0.8311376520841864  0.8333264842756204  0.7075407746758293
  0.0024980905219268  0.9988957265891826  0.2045369388604897
  0.3248963135301373  0.9989205948669859  0.2048097804549079
  0.6621090957900111  0.9980148253841773  0.2030016789003269
  0.9899175532527916  0.3333089879957024  0.2082880432285323
  0.3371030376859422  0.3332948293935276  0.2087634482435516
  0.7295947941771570  0.3331917123477555  0.2218447249119955
  0.0022974115655522  0.6677160144414532  0.2044556054105098
  0.3252705300684063  0.6677114877415063  0.2047718637143054
  0.6619747739692324  0.6687810684196700  0.2030041293855077
  0.6122839982269530  0.3333324679547633  0.2265785923337140
  0.6648251204870170  0.3333990518248715  0.9841496982578855
 
  0.00000000E+00  0.00000000E+00  0.00000000E+00
  0.00000000E+00  0.00000000E+00  0.00000000E+00
  0.00000000E+00  0.00000000E+00  0.00000000E+00
  0.00000000E+00  0.00000000E+00  0.00000000E+00
  0.00000000E+00  0.00000000E+00  0.00000000E+00
  0.00000000E+00  0.00000000E+00  0.00000000E+00
  0.00000000E+00  0.00000000E+00  0.00000000E+00
  0.00000000E+00  0.00000000E+00  0.00000000E+00
  0.00000000E+00  0.00000000E+00  0.00000000E+00
  0.00000000E+00  0.00000000E+00  0.00000000E+00
  0.00000000E+00  0.00000000E+00  0.00000000E+00
  0.00000000E+00  0.00000000E+00  0.00000000E+00
  0.00000000E+00  0.00000000E+00  0.00000000E+00
  0.00000000E+00  0.00000000E+00  0.00000000E+00
  0.00000000E+00  0.00000000E+00  0.00000000E+00
  0.00000000E+00  0.00000000E+00  0.00000000E+00
  0.00000000E+00  0.00000000E+00  0.00000000E+00
  0.00000000E+00  0.00000000E+00  0.00000000E+00
  0.00000000E+00  0.00000000E+00  0.00000000E+00
  0.00000000E+00  0.00000000E+00  0.00000000E+00
  0.00000000E+00  0.00000000E+00  0.00000000E+00
  0.00000000E+00  0.00000000E+00  0.00000000E+00
  0.00000000E+00  0.00000000E+00  0.00000000E+00
  0.00000000E+00  0.00000000E+00  0.00000000E+00
  0.00000000E+00  0.00000000E+00  0.00000000E+00
  0.00000000E+00  0.00000000E+00  0.00000000E+00
  0.00000000E+00  0.00000000E+00  0.00000000E+00
  0.00000000E+00  0.00000000E+00  0.00000000E+00
  0.00000000E+00  0.00000000E+00  0.00000000E+00
  0.00000000E+00  0.00000000E+00  0.00000000E+00
  0.00000000E+00  0.00000000E+00  0.00000000E+00
  0.00000000E+00  0.00000000E+00  0.00000000E+00
  0.00000000E+00  0.00000000E+00  0.00000000E+00
  0.00000000E+00  0.00000000E+00  0.00000000E+00
  0.00000000E+00  0.00000000E+00  0.00000000E+00
  0.00000000E+00  0.00000000E+00  0.00000000E+00
  0.00000000E+00  0.00000000E+00  0.00000000E+00
  0.00000000E+00  0.00000000E+00  0.00000000E+00
  0.00000000E+00  0.00000000E+00  0.00000000E+00
  0.00000000E+00  0.00000000E+00  0.00000000E+00
  0.00000000E+00  0.00000000E+00  0.00000000E+00
  0.00000000E+00  0.00000000E+00  0.00000000E+00
  0.00000000E+00  0.00000000E+00  0.00000000E+00
  0.00000000E+00  0.00000000E+00  0.00000000E+00
  0.00000000E+00  0.00000000E+00  0.00000000E+00
  0.00000000E+00  0.00000000E+00  0.00000000E+00
  0.00000000E+00  0.00000000E+00  0.00000000E+00
  0.00000000E+00  0.00000000E+00  0.00000000E+00
  0.00000000E+00  0.00000000E+00  0.00000000E+00
  0.00000000E+00  0.00000000E+00  0.00000000E+00
  0.00000000E+00  0.00000000E+00  0.00000000E+00
  0.00000000E+00  0.00000000E+00  0.00000000E+00
  0.00000000E+00  0.00000000E+00  0.00000000E+00
  0.00000000E+00  0.00000000E+00  0.00000000E+00
  0.00000000E+00  0.00000000E+00  0.00000000E+00
  0.00000000E+00  0.00000000E+00  0.00000000E+00
  0.00000000E+00  0.00000000E+00  0.00000000E+00
  0.00000000E+00  0.00000000E+00  0.00000000E+00
  0.00000000E+00  0.00000000E+00  0.00000000E+00
  0.00000000E+00  0.00000000E+00  0.00000000E+00
  0.00000000E+00  0.00000000E+00  0.00000000E+00
  0.00000000E+00  0.00000000E+00  0.00000000E+00
  0.00000000E+00  0.00000000E+00  0.00000000E+00
  0.00000000E+00  0.00000000E+00  0.00000000E+00
  0.00000000E+00  0.00000000E+00  0.00000000E+00
  0.00000000E+00  0.00000000E+00  0.00000000E+00
  0.00000000E+00  0.00000000E+00  0.00000000E+00
  0.00000000E+00  0.00000000E+00  0.00000000E+00
  0.00000000E+00  0.00000000E+00  0.00000000E+00
  0.00000000E+00  0.00000000E+00  0.00000000E+00
  0.00000000E+00  0.00000000E+00  0.00000000E+00
  0.00000000E+00  0.00000000E+00  0.00000000E+00
  0.00000000E+00  0.00000000E+00  0.00000000E+00
  0.00000000E+00  0.00000000E+00  0.00000000E+00
  0.00000000E+00  0.00000000E+00  0.00000000E+00
  0.00000000E+00  0.00000000E+00  0.00000000E+00
  0.00000000E+00  0.00000000E+00  0.00000000E+00
  0.00000000E+00  0.00000000E+00  0.00000000E+00
  0.00000000E+00  0.00000000E+00  0.00000000E+00
  0.00000000E+00  0.00000000E+00  0.00000000E+00
  0.00000000E+00  0.00000000E+00  0.00000000E+00
  0.00000000E+00  0.00000000E+00  0.00000000E+00
  0.00000000E+00  0.00000000E+00  0.00000000E+00
  0.00000000E+00  0.00000000E+00  0.00000000E+00
  0.00000000E+00  0.00000000E+00  0.00000000E+00
  0.00000000E+00  0.00000000E+00  0.00000000E+00
  0.00000000E+00  0.00000000E+00  0.00000000E+00
  0.00000000E+00  0.00000000E+00  0.00000000E+00
  0.00000000E+00  0.00000000E+00  0.00000000E+00
  0.00000000E+00  0.00000000E+00  0.00000000E+00
  0.00000000E+00  0.00000000E+00  0.00000000E+00
  0.00000000E+00  0.00000000E+00  0.00000000E+00
  0.00000000E+00  0.00000000E+00  0.00000000E+00
  0.00000000E+00  0.00000000E+00  0.00000000E+00
  0.00000000E+00  0.00000000E+00  0.00000000E+00
  0.00000000E+00  0.00000000E+00  0.00000000E+00
  0.00000000E+00  0.00000000E+00  0.00000000E+00
  0.00000000E+00  0.00000000E+00  0.00000000E+00
  0.00000000E+00  0.00000000E+00  0.00000000E+00
  0.00000000E+00  0.00000000E+00  0.00000000E+00
  0.00000000E+00  0.00000000E+00  0.00000000E+00
  0.00000000E+00  0.00000000E+00  0.00000000E+00
  0.00000000E+00  0.00000000E+00  0.00000000E+00
  0.00000000E+00  0.00000000E+00  0.00000000E+00
  0.00000000E+00  0.00000000E+00  0.00000000E+00
  0.00000000E+00  0.00000000E+00  0.00000000E+00
  0.00000000E+00  0.00000000E+00  0.00000000E+00
  0.00000000E+00  0.00000000E+00  0.00000000E+00
  0.00000000E+00  0.00000000E+00  0.00000000E+00
