CIF file                                
   1.00000000000000     
    11.3519997597000071    0.0000000000000000    0.0000000000000000
     0.0000000000000000   11.3519997597000071    0.0000000000000000
     0.0000000000000000    0.0000000000000000    9.6265001297000055
   Ti   O    N    Nb
    35    72     1     1
Direct
  0.1644067891111176  0.0103284606154950  0.7545339268976943
  0.4974120128812803  0.9992774008848618  0.7507112381300945
  0.8311617625562255  0.9991535008670154  0.7506468207206524
  0.1644393732754464  0.3333463827533652  0.7473298094155009
  0.4893196940696899  0.3333442397473111  0.7394096035192557
  0.8395163821145183  0.3333465323891128  0.7388023708828806
  0.1644231320484081  0.6563417153654040  0.7545757402147635
  0.4974203428162443  0.6673813320645182  0.7506576949390351
  0.8311711080611219  0.6675113540370178  0.7506198996466585
  0.9961026577169226  0.1652431916866984  0.2510347461776248
  0.3318708606615304  0.1652451083550069  0.2513504237377006
  0.6640842389204463  0.1596673750740375  0.2564469544925020
  0.9960512073787212  0.5013893445674403  0.2509729895468861
  0.3318179553939944  0.5013708299932778  0.2513131270562875
  0.6640263911425497  0.5070505406768869  0.2563733663530415
  0.9950180257387473  0.8333162077256593  0.2485592432285826
  0.3323861972145974  0.8333244753903224  0.2489469563468187
  0.6634011688362303  0.8333713539349337  0.2500690274887663
  0.9977422273354392  0.9998798185073745  0.0013390036131303
  0.3308083047790509  0.9999180334803465  0.0016871741111542
  0.6642486144653644  0.9979415283215509  0.9976535568115016
  0.9999623640462273  0.3333072195959023  0.0026351985975540
  0.3287421549680512  0.3333080711900145  0.0030542104224719
  0.9977307888075486  0.6667609856293146  0.0013219352334941
  0.3308444185670609  0.6667241138764218  0.0016902308517881
  0.6642576097033195  0.6687997189085503  0.9976341174426093
  0.1638221617637610  0.1658380171564578  0.4971605215181490
  0.4954351224545439  0.1636423278801124  0.4998493590134004
  0.8322806404957267  0.1634718758039413  0.4997995081145796
  0.1637795346728510  0.5008656111807183  0.4971207697238620
  0.4954000857783063  0.5030195060219125  0.4998034860102981
  0.8322264584888910  0.5032072835264394  0.4997363189762039
  0.1637351025870306  0.8333198545592047  0.4912919705841101
  0.4971391079037298  0.8333458948228030  0.5001853523548666
  0.8304105638602538  0.8333371817914934  0.4997341982467029
  0.9990833963838673  0.9955974894179495  0.7930807726338512
  0.3300623238822619  0.9956627116499893  0.7933523553993357
  0.6645107141743459  0.0009698048034382  0.7938224933664109
  0.0002506819457638  0.3333338719486031  0.7924846309835405
  0.3289907585745286  0.3333285587926023  0.7932311202190429
  0.6644719213491826  0.3333620959971930  0.7844472746430636
  0.9990839084088657  0.6710614290315770  0.7930752671414183
  0.3300749429436871  0.6710014347922698  0.7933626326396926
  0.6645126824372305  0.6657134267539254  0.7937909345699593
  0.1640927056629239  0.1666980870900643  0.2947610931814845
  0.4945230609179667  0.1452782051178896  0.2989517608372586
  0.8335739338463680  0.1446646639221311  0.2987064105138724
  0.1640555804926135  0.5000150969719477  0.2947124707691958
  0.4944626415628641  0.5212915993859477  0.2989229564108420
  0.8335078003239678  0.5219145708160409  0.2986053879959594
  0.1640381479158114  0.8332342568190622  0.2952924936202889
  0.4969719586355810  0.8334355598169828  0.2932043694470090
  0.8306662060502604  0.8333209650864652  0.2923882863105693
  0.9966443327265486  0.1674454718823384  0.0454624681680141
  0.3328746847311230  0.1674272059079446  0.0458261235976206
  0.6660781773611475  0.1703815287985483  0.0475418640436633
  0.9966441660792320  0.4991929704799283  0.0454047153236022
  0.3328070692694846  0.4991941762161940  0.0458027741079780
  0.6661344897484412  0.4962961695217201  0.0475552704327753
  0.9968757415359242  0.8333301218934624  0.0424187503880684
  0.3326227223983872  0.8333279931333967  0.0429357927984930
  0.6650913013455128  0.8333517653301484  0.0386933571424767
  0.1639809711280548  0.9972201369794792  0.5493071027029216
  0.4987870488623868  0.9988772701755111  0.5458180088079861
  0.8298488415308087  0.9987548031065508  0.5456074772358669
  0.1642228337038615  0.3333459820342388  0.5440286495531257
  0.4943047250460321  0.3333299723649326  0.5389734882849143
  0.8339349272801082  0.3333443164911851  0.5383460314208839
  0.1639550076174670  0.6694373081918167  0.5493111684060120
  0.4987840522735635  0.6678021561393328  0.5457505442131848
  0.8298666020076024  0.6679233615235937  0.5455533835533689
  0.1645705106287846  0.0046422278841139  0.9585065206047713
  0.4978415528725880  0.0024834114814006  0.9563001438303895
  0.8312953010688088  0.0022315240159725  0.9561041364138376
  0.1645156058659512  0.3333141421936907  0.9578449348409636
  0.4954138052572435  0.3333627816689180  0.9486968573524294
  0.8341626696842870  0.3333211337462804  0.9475131927037441
  0.1645823008862567  0.6620602047264310  0.9585311740793895
  0.4978542796048522  0.6641328640031601  0.9562551772329350
  0.8312922039486903  0.6644478152361881  0.9560848131754062
  0.9984395654655039  0.1674226760677408  0.4580664716885876
  0.3297627957658326  0.1670646707732934  0.4585455523804433
  0.6642857721909161  0.1710104256939947  0.4565551243918209
  0.9983966445333550  0.4993073212577937  0.4579733042879011
  0.3297171896879051  0.4996228230620609  0.4585217817227826
  0.6642506790424902  0.4957023690203050  0.4565129541346938
  0.9967641174337543  0.8333436638285031  0.4562454696144169
  0.3311964820710841  0.8333364966531044  0.4569469552657706
  0.6640998353516806  0.8333379749714848  0.4531628494501239
  0.1648565951891114  0.1683573008593186  0.7064030771076721
  0.4961046142211706  0.1662291326389678  0.7061578766937627
  0.8331369982785568  0.1661809271292158  0.7058523109013823
  0.1648585645212283  0.4983217077165810  0.7064045285723398
  0.4960791942993068  0.5004392178965618  0.7060838023702225
  0.8331322120874917  0.5005047517161334  0.7058052347815803
  0.1652962339638492  0.8333262120982899  0.7229841390689307
  0.4988753105727116  0.8333312137974542  0.7070850253293799
  0.8302207512701493  0.8333290862222515  0.7068496043162734
  0.0021867873106704  0.9987244685541782  0.2045187747386088
  0.3253525433882587  0.9987551849518675  0.2048687341314104
  0.6620393945049505  0.9978988995146163  0.2021448671030686
  0.9899821059010093  0.3333173850415345  0.2087209502378148
  0.3370053049155795  0.3333144356247881  0.2092158268871107
  0.7295173011000238  0.3332959267888241  0.2219278577937868
  0.0020864379989798  0.6679130093725119  0.2044741469142999
  0.3255319041802839  0.6678891126467970  0.2048415284249299
  0.6619671013113135  0.6687998407876985  0.2021048205574008
  0.6122432398119515  0.3333487610083645  0.2266140851951241
  0.6647671397113589  0.3333493059175799  0.9839948644200511
 
  0.00000000E+00  0.00000000E+00  0.00000000E+00
  0.00000000E+00  0.00000000E+00  0.00000000E+00
  0.00000000E+00  0.00000000E+00  0.00000000E+00
  0.00000000E+00  0.00000000E+00  0.00000000E+00
  0.00000000E+00  0.00000000E+00  0.00000000E+00
  0.00000000E+00  0.00000000E+00  0.00000000E+00
  0.00000000E+00  0.00000000E+00  0.00000000E+00
  0.00000000E+00  0.00000000E+00  0.00000000E+00
  0.00000000E+00  0.00000000E+00  0.00000000E+00
  0.00000000E+00  0.00000000E+00  0.00000000E+00
  0.00000000E+00  0.00000000E+00  0.00000000E+00
  0.00000000E+00  0.00000000E+00  0.00000000E+00
  0.00000000E+00  0.00000000E+00  0.00000000E+00
  0.00000000E+00  0.00000000E+00  0.00000000E+00
  0.00000000E+00  0.00000000E+00  0.00000000E+00
  0.00000000E+00  0.00000000E+00  0.00000000E+00
  0.00000000E+00  0.00000000E+00  0.00000000E+00
  0.00000000E+00  0.00000000E+00  0.00000000E+00
  0.00000000E+00  0.00000000E+00  0.00000000E+00
  0.00000000E+00  0.00000000E+00  0.00000000E+00
  0.00000000E+00  0.00000000E+00  0.00000000E+00
  0.00000000E+00  0.00000000E+00  0.00000000E+00
  0.00000000E+00  0.00000000E+00  0.00000000E+00
  0.00000000E+00  0.00000000E+00  0.00000000E+00
  0.00000000E+00  0.00000000E+00  0.00000000E+00
  0.00000000E+00  0.00000000E+00  0.00000000E+00
  0.00000000E+00  0.00000000E+00  0.00000000E+00
  0.00000000E+00  0.00000000E+00  0.00000000E+00
  0.00000000E+00  0.00000000E+00  0.00000000E+00
  0.00000000E+00  0.00000000E+00  0.00000000E+00
  0.00000000E+00  0.00000000E+00  0.00000000E+00
  0.00000000E+00  0.00000000E+00  0.00000000E+00
  0.00000000E+00  0.00000000E+00  0.00000000E+00
  0.00000000E+00  0.00000000E+00  0.00000000E+00
  0.00000000E+00  0.00000000E+00  0.00000000E+00
  0.00000000E+00  0.00000000E+00  0.00000000E+00
  0.00000000E+00  0.00000000E+00  0.00000000E+00
  0.00000000E+00  0.00000000E+00  0.00000000E+00
  0.00000000E+00  0.00000000E+00  0.00000000E+00
  0.00000000E+00  0.00000000E+00  0.00000000E+00
  0.00000000E+00  0.00000000E+00  0.00000000E+00
  0.00000000E+00  0.00000000E+00  0.00000000E+00
  0.00000000E+00  0.00000000E+00  0.00000000E+00
  0.00000000E+00  0.00000000E+00  0.00000000E+00
  0.00000000E+00  0.00000000E+00  0.00000000E+00
  0.00000000E+00  0.00000000E+00  0.00000000E+00
  0.00000000E+00  0.00000000E+00  0.00000000E+00
  0.00000000E+00  0.00000000E+00  0.00000000E+00
  0.00000000E+00  0.00000000E+00  0.00000000E+00
  0.00000000E+00  0.00000000E+00  0.00000000E+00
  0.00000000E+00  0.00000000E+00  0.00000000E+00
  0.00000000E+00  0.00000000E+00  0.00000000E+00
  0.00000000E+00  0.00000000E+00  0.00000000E+00
  0.00000000E+00  0.00000000E+00  0.00000000E+00
  0.00000000E+00  0.00000000E+00  0.00000000E+00
  0.00000000E+00  0.00000000E+00  0.00000000E+00
  0.00000000E+00  0.00000000E+00  0.00000000E+00
  0.00000000E+00  0.00000000E+00  0.00000000E+00
  0.00000000E+00  0.00000000E+00  0.00000000E+00
  0.00000000E+00  0.00000000E+00  0.00000000E+00
  0.00000000E+00  0.00000000E+00  0.00000000E+00
  0.00000000E+00  0.00000000E+00  0.00000000E+00
  0.00000000E+00  0.00000000E+00  0.00000000E+00
  0.00000000E+00  0.00000000E+00  0.00000000E+00
  0.00000000E+00  0.00000000E+00  0.00000000E+00
  0.00000000E+00  0.00000000E+00  0.00000000E+00
  0.00000000E+00  0.00000000E+00  0.00000000E+00
  0.00000000E+00  0.00000000E+00  0.00000000E+00
  0.00000000E+00  0.00000000E+00  0.00000000E+00
  0.00000000E+00  0.00000000E+00  0.00000000E+00
  0.00000000E+00  0.00000000E+00  0.00000000E+00
  0.00000000E+00  0.00000000E+00  0.00000000E+00
  0.00000000E+00  0.00000000E+00  0.00000000E+00
  0.00000000E+00  0.00000000E+00  0.00000000E+00
  0.00000000E+00  0.00000000E+00  0.00000000E+00
  0.00000000E+00  0.00000000E+00  0.00000000E+00
  0.00000000E+00  0.00000000E+00  0.00000000E+00
  0.00000000E+00  0.00000000E+00  0.00000000E+00
  0.00000000E+00  0.00000000E+00  0.00000000E+00
  0.00000000E+00  0.00000000E+00  0.00000000E+00
  0.00000000E+00  0.00000000E+00  0.00000000E+00
  0.00000000E+00  0.00000000E+00  0.00000000E+00
  0.00000000E+00  0.00000000E+00  0.00000000E+00
  0.00000000E+00  0.00000000E+00  0.00000000E+00
  0.00000000E+00  0.00000000E+00  0.00000000E+00
  0.00000000E+00  0.00000000E+00  0.00000000E+00
  0.00000000E+00  0.00000000E+00  0.00000000E+00
  0.00000000E+00  0.00000000E+00  0.00000000E+00
  0.00000000E+00  0.00000000E+00  0.00000000E+00
  0.00000000E+00  0.00000000E+00  0.00000000E+00
  0.00000000E+00  0.00000000E+00  0.00000000E+00
  0.00000000E+00  0.00000000E+00  0.00000000E+00
  0.00000000E+00  0.00000000E+00  0.00000000E+00
  0.00000000E+00  0.00000000E+00  0.00000000E+00
  0.00000000E+00  0.00000000E+00  0.00000000E+00
  0.00000000E+00  0.00000000E+00  0.00000000E+00
  0.00000000E+00  0.00000000E+00  0.00000000E+00
  0.00000000E+00  0.00000000E+00  0.00000000E+00
  0.00000000E+00  0.00000000E+00  0.00000000E+00
  0.00000000E+00  0.00000000E+00  0.00000000E+00
  0.00000000E+00  0.00000000E+00  0.00000000E+00
  0.00000000E+00  0.00000000E+00  0.00000000E+00
  0.00000000E+00  0.00000000E+00  0.00000000E+00
  0.00000000E+00  0.00000000E+00  0.00000000E+00
  0.00000000E+00  0.00000000E+00  0.00000000E+00
  0.00000000E+00  0.00000000E+00  0.00000000E+00
  0.00000000E+00  0.00000000E+00  0.00000000E+00
  0.00000000E+00  0.00000000E+00  0.00000000E+00
  0.00000000E+00  0.00000000E+00  0.00000000E+00
