CIF file                                
   1.00000000000000     
    11.3519997597000071    0.0000000000000000    0.0000000000000000
     0.0000000000000000   11.3519997597000071    0.0000000000000000
     0.0000000000000000    0.0000000000000000    9.6265001297000055
   Ti   O    N    Nb
    35    72     1     1
Direct
  0.1644936197763920  0.9998133358941167  0.7501076065937914
  0.4977864250631049  0.9996444741582456  0.7516216307089985
  0.8312124380534311  0.9994677859795233  0.7513458376906974
  0.1644142836701170  0.3333522650213405  0.7478958043716692
  0.4935647436504949  0.3333513558064198  0.7435755080202493
  0.8350407942904500  0.3333483634930363  0.7425832526386772
  0.1644863897417484  0.6669086081106116  0.7502324645612589
  0.4977761741219966  0.6670677711633627  0.7516589862832840
  0.8312047129471031  0.6672309060227496  0.7514132168186720
  0.9964850678440290  0.1652130429488116  0.2512892816442872
  0.3304948393004957  0.1652238965511223  0.2514934411067276
  0.6630110088253290  0.1667026657381530  0.2548513769246746
  0.9964532201518052  0.5014022367260997  0.2513167223077808
  0.3304527899970494  0.5014096721674349  0.2515118577783025
  0.6629672242440902  0.4998380671771983  0.2549479006933713
  0.9975237731968755  0.8333247068290137  0.2498688143241851
  0.3296096299338808  0.8333456812812977  0.2502569171500005
  0.6631570700197311  0.8332962809531823  0.2517616934664997
  0.9981664579124311  0.9997038780860847  0.9998516301842088
  0.3306988127437208  0.9997374123830562  0.0001367084214393
  0.6645878106211878  0.9977006489135847  0.0007743124642235
  0.9995541353333123  0.3333259062115287  0.0013533723765817
  0.3296635759836637  0.3333380768663644  0.0019568835159981
  0.9981451162482818  0.6669478130212942  0.9999277017652850
  0.3307148181828176  0.6669466597254738  0.0002111134704334
  0.6645736796708615  0.6688526084911531  0.0008646024169177
  0.1637564085381907  0.1664231512302783  0.5013804431834883
  0.4954583919767782  0.1647916421522670  0.4998764792455406
  0.8321368788624295  0.1644799583108208  0.4996862460370340
  0.1637228498015394  0.5003238816328217  0.5014394275438194
  0.4953980841352892  0.5019241806529046  0.4999338189783710
  0.8321142832608213  0.5022363953774868  0.4997261973698423
  0.1636506953992390  0.8333375161888922  0.5008286699562282
  0.4965057046035500  0.8333584481172051  0.5006073554923256
  0.8309465919405097  0.8333452529291010  0.4999760556496077
  0.9978322861933102  0.0002376487944136  0.7937617664661087
  0.3315352306977272  0.0000638920992899  0.7942049368516152
  0.6645711466995458  0.9999349404651904  0.7948950251921533
  0.9993865982293858  0.3333329800884940  0.7918290206568998
  0.3298614112273889  0.3333353445774677  0.7929416015144279
  0.6639466048945288  0.3333425292816735  0.7898007370127763
  0.9978244896668171  0.6664588513334380  0.7938558369984945
  0.3315283765200265  0.6666443606767165  0.7942791196970439
  0.6645687477677622  0.6667448069572535  0.7949606786813551
  0.1638880531189065  0.1675515659968140  0.2951179643571882
  0.4942154612229392  0.1472626078171775  0.2983804896683808
  0.8332726380871809  0.1467874466786633  0.2984296791567697
  0.1638789991423719  0.4992191211542778  0.2951271198266005
  0.4942005413328185  0.5191776915915143  0.2984355545024334
  0.8332229331995165  0.5197519595948856  0.2984551683902391
  0.1639212973283632  0.8331486054549991  0.2957863787567177
  0.4963662282963096  0.8334219592815081  0.2944795630306467
  0.8310250514483328  0.8333567140631294  0.2934900792296553
  0.9976220622416683  0.1671966406578896  0.0457074999634733
  0.3315915362371714  0.1672054356155011  0.0460497481341702
  0.6682685564563440  0.1651255861842963  0.0430536990425815
  0.9976902709269723  0.4994473731159885  0.0457376567370974
  0.3314196542218891  0.4994633645758175  0.0460659723289680
  0.6682949212582489  0.5014830600088904  0.0432618642878573
  0.9977269177943483  0.8333314217817153  0.0431352459183837
  0.3321893973287569  0.8333465359742814  0.0433398681868038
  0.6652950361287260  0.8332895746193770  0.0436084781789873
  0.1639764906704010  0.9998759446831688  0.5438707776012932
  0.4987257905529324  0.9992312746145434  0.5459195353304733
  0.8297288901596789  0.9990824184475516  0.5455357372765739
  0.1642630061267662  0.3333746532329079  0.5446642677150703
  0.4951590248118070  0.3333506418859734  0.5397523126514132
  0.8324889790520863  0.3333504221474203  0.5387459219504488
  0.1639407291484380  0.6668278743881394  0.5439968856333872
  0.4986081416071752  0.6674779244459470  0.5459601168610964
  0.8298393734783245  0.6676117425605130  0.5455702938279510
  0.1646176912378926  0.0003576258586101  0.9557275622382179
  0.4979404416431311  0.0006537989471636  0.9577312727944396
  0.8315878123058970  0.9993520239004976  0.9571505736220052
  0.1645027499586551  0.3332868981053377  0.9574159867181201
  0.4941387413406805  0.3333749886882241  0.9494081693327474
  0.8354543653326777  0.3333500138636235  0.9475328983262833
  0.1646161353798223  0.6663965448467984  0.9558663875030889
  0.4979411790247742  0.6659517189795265  0.9577720952459643
  0.8315732105114044  0.6672406006416458  0.9572399040690776
  0.9980568791664913  0.1679850163562080  0.4584588444407452
  0.3299702493691281  0.1676131761284013  0.4587529414701381
  0.6640720366985322  0.1717402745404428  0.4554766954596564
  0.9980500672057681  0.4987043649069220  0.4584663555226475
  0.3299223196898923  0.4991240770174633  0.4587950941539702
  0.6640494472299029  0.4950623590290914  0.4556248824272207
  0.9969979587294686  0.8333977941877351  0.4563769716144186
  0.3308649163191599  0.8333818381351588  0.4570087635825976
  0.6639645049915518  0.8332691224553269  0.4554838759890055
  0.1648812527867658  0.1664419013520009  0.7067904194468581
  0.4977019007784125  0.1665532646503943  0.7059426377281293
  0.8314677648477898  0.1665163198755790  0.7056755278928412
  0.1648653424704448  0.5002647003115048  0.7068773618768687
  0.4976775786863534  0.5001440354002245  0.7059907325728452
  0.8314672859068686  0.5001757818462222  0.7057258898516646
  0.1647380293516348  0.8333542768455813  0.7068717375720112
  0.4978370519665616  0.8333541291163244  0.7077328892475554
  0.8316011836352351  0.8333422010809480  0.7071316210996967
  0.0019902306899160  0.9990258696638825  0.2050854297166072
  0.3252341082013794  0.9989861171055449  0.2053025170609417
  0.6614987099152768  0.9992665448658700  0.2056198269348595
  0.9911799900905849  0.3333197840338988  0.2086094731077492
  0.3364411181882050  0.3333283664683191  0.2092618334178998
  0.7352625119535411  0.3332461366297909  0.2039910575442375
  0.0017832899389372  0.6676077472518599  0.2051419784211066
  0.3255708074910777  0.6676850242673980  0.2053526133142565
  0.6614097574551988  0.6673595293071309  0.2057392587955531
  0.6086492460467996  0.3332750627557768  0.2094983835205468
  0.6652854268130858  0.3332848427580979  0.9988996035973633
 
  0.00000000E+00  0.00000000E+00  0.00000000E+00
  0.00000000E+00  0.00000000E+00  0.00000000E+00
  0.00000000E+00  0.00000000E+00  0.00000000E+00
  0.00000000E+00  0.00000000E+00  0.00000000E+00
  0.00000000E+00  0.00000000E+00  0.00000000E+00
  0.00000000E+00  0.00000000E+00  0.00000000E+00
  0.00000000E+00  0.00000000E+00  0.00000000E+00
  0.00000000E+00  0.00000000E+00  0.00000000E+00
  0.00000000E+00  0.00000000E+00  0.00000000E+00
  0.00000000E+00  0.00000000E+00  0.00000000E+00
  0.00000000E+00  0.00000000E+00  0.00000000E+00
  0.00000000E+00  0.00000000E+00  0.00000000E+00
  0.00000000E+00  0.00000000E+00  0.00000000E+00
  0.00000000E+00  0.00000000E+00  0.00000000E+00
  0.00000000E+00  0.00000000E+00  0.00000000E+00
  0.00000000E+00  0.00000000E+00  0.00000000E+00
  0.00000000E+00  0.00000000E+00  0.00000000E+00
  0.00000000E+00  0.00000000E+00  0.00000000E+00
  0.00000000E+00  0.00000000E+00  0.00000000E+00
  0.00000000E+00  0.00000000E+00  0.00000000E+00
  0.00000000E+00  0.00000000E+00  0.00000000E+00
  0.00000000E+00  0.00000000E+00  0.00000000E+00
  0.00000000E+00  0.00000000E+00  0.00000000E+00
  0.00000000E+00  0.00000000E+00  0.00000000E+00
  0.00000000E+00  0.00000000E+00  0.00000000E+00
  0.00000000E+00  0.00000000E+00  0.00000000E+00
  0.00000000E+00  0.00000000E+00  0.00000000E+00
  0.00000000E+00  0.00000000E+00  0.00000000E+00
  0.00000000E+00  0.00000000E+00  0.00000000E+00
  0.00000000E+00  0.00000000E+00  0.00000000E+00
  0.00000000E+00  0.00000000E+00  0.00000000E+00
  0.00000000E+00  0.00000000E+00  0.00000000E+00
  0.00000000E+00  0.00000000E+00  0.00000000E+00
  0.00000000E+00  0.00000000E+00  0.00000000E+00
  0.00000000E+00  0.00000000E+00  0.00000000E+00
  0.00000000E+00  0.00000000E+00  0.00000000E+00
  0.00000000E+00  0.00000000E+00  0.00000000E+00
  0.00000000E+00  0.00000000E+00  0.00000000E+00
  0.00000000E+00  0.00000000E+00  0.00000000E+00
  0.00000000E+00  0.00000000E+00  0.00000000E+00
  0.00000000E+00  0.00000000E+00  0.00000000E+00
  0.00000000E+00  0.00000000E+00  0.00000000E+00
  0.00000000E+00  0.00000000E+00  0.00000000E+00
  0.00000000E+00  0.00000000E+00  0.00000000E+00
  0.00000000E+00  0.00000000E+00  0.00000000E+00
  0.00000000E+00  0.00000000E+00  0.00000000E+00
  0.00000000E+00  0.00000000E+00  0.00000000E+00
  0.00000000E+00  0.00000000E+00  0.00000000E+00
  0.00000000E+00  0.00000000E+00  0.00000000E+00
  0.00000000E+00  0.00000000E+00  0.00000000E+00
  0.00000000E+00  0.00000000E+00  0.00000000E+00
  0.00000000E+00  0.00000000E+00  0.00000000E+00
  0.00000000E+00  0.00000000E+00  0.00000000E+00
  0.00000000E+00  0.00000000E+00  0.00000000E+00
  0.00000000E+00  0.00000000E+00  0.00000000E+00
  0.00000000E+00  0.00000000E+00  0.00000000E+00
  0.00000000E+00  0.00000000E+00  0.00000000E+00
  0.00000000E+00  0.00000000E+00  0.00000000E+00
  0.00000000E+00  0.00000000E+00  0.00000000E+00
  0.00000000E+00  0.00000000E+00  0.00000000E+00
  0.00000000E+00  0.00000000E+00  0.00000000E+00
  0.00000000E+00  0.00000000E+00  0.00000000E+00
  0.00000000E+00  0.00000000E+00  0.00000000E+00
  0.00000000E+00  0.00000000E+00  0.00000000E+00
  0.00000000E+00  0.00000000E+00  0.00000000E+00
  0.00000000E+00  0.00000000E+00  0.00000000E+00
  0.00000000E+00  0.00000000E+00  0.00000000E+00
  0.00000000E+00  0.00000000E+00  0.00000000E+00
  0.00000000E+00  0.00000000E+00  0.00000000E+00
  0.00000000E+00  0.00000000E+00  0.00000000E+00
  0.00000000E+00  0.00000000E+00  0.00000000E+00
  0.00000000E+00  0.00000000E+00  0.00000000E+00
  0.00000000E+00  0.00000000E+00  0.00000000E+00
  0.00000000E+00  0.00000000E+00  0.00000000E+00
  0.00000000E+00  0.00000000E+00  0.00000000E+00
  0.00000000E+00  0.00000000E+00  0.00000000E+00
  0.00000000E+00  0.00000000E+00  0.00000000E+00
  0.00000000E+00  0.00000000E+00  0.00000000E+00
  0.00000000E+00  0.00000000E+00  0.00000000E+00
  0.00000000E+00  0.00000000E+00  0.00000000E+00
  0.00000000E+00  0.00000000E+00  0.00000000E+00
  0.00000000E+00  0.00000000E+00  0.00000000E+00
  0.00000000E+00  0.00000000E+00  0.00000000E+00
  0.00000000E+00  0.00000000E+00  0.00000000E+00
  0.00000000E+00  0.00000000E+00  0.00000000E+00
  0.00000000E+00  0.00000000E+00  0.00000000E+00
  0.00000000E+00  0.00000000E+00  0.00000000E+00
  0.00000000E+00  0.00000000E+00  0.00000000E+00
  0.00000000E+00  0.00000000E+00  0.00000000E+00
  0.00000000E+00  0.00000000E+00  0.00000000E+00
  0.00000000E+00  0.00000000E+00  0.00000000E+00
  0.00000000E+00  0.00000000E+00  0.00000000E+00
  0.00000000E+00  0.00000000E+00  0.00000000E+00
  0.00000000E+00  0.00000000E+00  0.00000000E+00
  0.00000000E+00  0.00000000E+00  0.00000000E+00
  0.00000000E+00  0.00000000E+00  0.00000000E+00
  0.00000000E+00  0.00000000E+00  0.00000000E+00
  0.00000000E+00  0.00000000E+00  0.00000000E+00
  0.00000000E+00  0.00000000E+00  0.00000000E+00
  0.00000000E+00  0.00000000E+00  0.00000000E+00
  0.00000000E+00  0.00000000E+00  0.00000000E+00
  0.00000000E+00  0.00000000E+00  0.00000000E+00
  0.00000000E+00  0.00000000E+00  0.00000000E+00
  0.00000000E+00  0.00000000E+00  0.00000000E+00
  0.00000000E+00  0.00000000E+00  0.00000000E+00
  0.00000000E+00  0.00000000E+00  0.00000000E+00
  0.00000000E+00  0.00000000E+00  0.00000000E+00
  0.00000000E+00  0.00000000E+00  0.00000000E+00
  0.00000000E+00  0.00000000E+00  0.00000000E+00
