CIF file                                
   1.00000000000000     
    11.3519997597000071    0.0000000000000000    0.0000000000000000
     0.0000000000000000   11.3519997597000071    0.0000000000000000
     0.0000000000000000    0.0000000000000000    9.6265001297000055
   Ti   O    Ta   N 
    35    71     1     1
Direct
  0.1664341463742542  0.9999709556855058  0.7495269379727375
  0.4999968189233048  0.0000037981492731  0.7517406445920638
  0.8335849284551730  0.0000074190689339  0.7495335612756940
  0.1662791094043556  0.3334870727946288  0.7496632949600508
  0.5000036092052017  0.3326481027594307  0.7549957799758672
  0.8337017762533625  0.3335023273188902  0.7496787852733263
  0.1663011277929544  0.6664903708090170  0.7496718553990617
  0.4999989724489733  0.6673484188919533  0.7550057160446122
  0.8337241183285413  0.6664978007729017  0.7496768729317875
  1.0000009131103968  0.1664677414526929  0.2504686651260865
  0.3330951956937478  0.1664425454668306  0.2499736474859759
  0.6668973840982489  0.1664715029134687  0.2499946037987931
  0.9999976649762500  0.5000009046124451  0.2488905577201896
  0.3353766006134696  0.4999818521445475  0.2450476426360236
  0.6646037590596717  0.5000158471269055  0.2451174879686382
  0.9999882614274339  0.8335464105140561  0.2504708090867223
  0.3331038147052549  0.8335348123010964  0.2499856598332674
  0.6669020683952264  0.8335649045177456  0.2499847389231910
  0.0000691041429789  0.0000054963864681  0.0001016318809002
  0.3328058142375280  0.9999990597428904  0.9997066643709130
  0.6673228193498648  0.0000147662078328  0.9997068890039109
  1.0000051496669446  0.3328293492301234  0.0003819345944866
  0.3320109587016111  0.3325133211836671  1.0000024011256190
  0.6679936904031960  0.3325289057445399  1.0000538770051928
  1.0000064553296555  0.6671787701567973  0.0003931590876176
  0.3320181038080949  0.6674858775559968  1.0000342830218616
  0.6680059953735138  0.6674834342488420  1.0000366567068979
  0.1665918571220600  0.1665545067941692  0.5000353907965283
  0.4999903169689535  0.1648314006612964  0.4997670599519196
  0.8333953560295623  0.1665795495399960  0.5000252716703464
  0.1638835350126134  0.4999873697870272  0.4997728044227456
  0.8359961854991513  0.5000043750443034  0.4997644526619621
  0.1665959863890479  0.8334136732133401  0.5000102555299628
  0.5000000895901540  0.8351797562577535  0.4997891323687843
  0.8333940193618257  0.8334318128087127  0.5000440910385811
  0.0000315602302270  0.9999592104031921  0.7937647886412836
  0.3332306362849528  0.9999562311924718  0.7938533152749551
  0.6668257908302818  1.0000017569835991  0.7938768280171026
  0.9999936807756070  0.3331177773883928  0.7938344261847986
  0.3330815411594412  0.3325195121210769  0.7941045056784338
  0.6669183965353016  0.3325464825188805  0.7941512410878855
  0.0000119664944192  0.6668769785219223  0.7938407525965279
  0.3330894828020275  0.6674623580006626  0.7941384516278194
  0.6669259612472437  0.6674584885020671  0.7941287890964895
  0.1666369685401723  0.1661749877902832  0.2940409537013082
  0.4999935119714081  0.1670029664461009  0.2939865380145491
  0.8333591265900472  0.1661796221578988  0.2940353663188651
  0.1647139741673123  0.4999733357735318  0.2961439318022434
  0.8352394325626876  0.5000143164764409  0.2961625389448976
  0.1666376668498280  0.8338323422471955  0.2940256254425135
  0.5000008069338207  0.8330088446400609  0.2940009955212236
  0.8333575130027715  0.8338331825295082  0.2940466013609126
  0.0000762049567681  0.1663433574385521  0.0440527855930109
  0.3331688130538370  0.1660167153689592  0.0433119238023040
  0.6667924055320773  0.1660412338684676  0.0433704040654998
  0.9999915889306870  0.5000026983804804  0.0438226292394805
  0.3316974176837957  0.4999977094261049  0.0404927484525432
  0.6683106077252121  0.5000024177489644  0.0405315978396062
  0.9999654720854395  0.8336648634997965  0.0440624568793803
  0.3332543013767595  0.8339686869524945  0.0433448358071220
  0.6668473415032933  0.8339926240281350  0.0433313706083448
  0.1667917015968587  0.9999894908059063  0.5436604171187958
  0.5000015953047346  0.0000033810189688  0.5439608534836402
  0.8332037360771480  0.0000048927543938  0.5436663876151987
  0.1663899835972604  0.3334255251465655  0.5445234489673039
  0.4999783107332728  0.3328378514297822  0.5459204522392481
  0.8335637567408579  0.3334420819665044  0.5445254857457344
  0.1664092787581091  0.6665533668050204  0.5445141325166681
  0.4999653630918168  0.6671644759788062  0.5459291941799673
  0.8335756552998298  0.6665633034040050  0.5445284265568514
  0.1665018197307120  0.9999433691790721  0.9558288016187722
  0.5000323307469380  0.0000216210369870  0.9559976457133822
  0.8335756335953377  0.0000779180387088  0.9558408076886449
  0.1661753126417251  0.3325564346794787  0.9561158229308341
  0.4999972445426601  0.3325172106515697  0.9577641413320617
  0.8338251014111215  0.3325029648941163  0.9561495716368962
  0.1661810419121741  0.6674947040869424  0.9561413629586748
  0.5000140263179640  0.6674738952385271  0.9577710088451510
  0.8338313524344970  0.6674699412317223  0.9561305373221913
  0.9999963705275076  0.1666599510604492  0.4562676480353063
  0.3335517971391302  0.1668455360341039  0.4561065715060977
  0.6664358793910048  0.1668604252473416  0.4561208716388738
  0.9999693408398437  0.4999979135649155  0.4587230151472838
  0.3304618863313095  0.4999713584116345  0.4583570808404319
  0.6694377977369189  0.5000095286742128  0.4583787673085427
  0.9999962801300055  0.8333405591991505  0.4562684465238465
  0.3335584182679348  0.8331515243472126  0.4561114713739033
  0.6664398762823743  0.8331455949338461  0.4561187980230970
  0.1665562724883330  0.1664562426537492  0.7060612483756429
  0.5000223878065574  0.1664282027838238  0.7064716850849446
  0.8334719486345415  0.1664759310091458  0.7060473402910266
  0.1665692277857784  0.4999956489200290  0.7076931937574580
  0.5000009612577636  0.4999995701101677  0.7115806676123785
  0.8334314778044982  0.4999993129227005  0.7077040609387407
  0.1665619883644231  0.8335132497918835  0.7060332630001396
  0.5000396974588203  0.8335727026217076  0.7064825046407308
  0.8334698542285990  0.8335308578026844  0.7060599081617703
  0.0000053435950568  0.0000057516522324  0.2061843465597254
  0.3334674026068086  0.9999966332867681  0.2060379636761742
  0.6665469227292488  0.0000134317077785  0.2060598627038765
  0.9999653839029445  0.3330144522947207  0.2057187471492903
  0.3311587612378901  0.3323866689769994  0.2043759587998827
  0.6688128010874372  0.3324165540009831  0.2044410059466001
  0.0000043010532247  0.6669882283251697  0.2057251305613912
  0.3311290507495815  0.6675923755604113  0.2044072032649435
  0.6688231305123710  0.6676129253305872  0.2044048097245566
  0.4999084165630663  0.5000059554924677  0.4921759757394243
  0.4999659028760717  0.5000175726667161  0.2874043373026043
 
  0.00000000E+00  0.00000000E+00  0.00000000E+00
  0.00000000E+00  0.00000000E+00  0.00000000E+00
  0.00000000E+00  0.00000000E+00  0.00000000E+00
  0.00000000E+00  0.00000000E+00  0.00000000E+00
  0.00000000E+00  0.00000000E+00  0.00000000E+00
  0.00000000E+00  0.00000000E+00  0.00000000E+00
  0.00000000E+00  0.00000000E+00  0.00000000E+00
  0.00000000E+00  0.00000000E+00  0.00000000E+00
  0.00000000E+00  0.00000000E+00  0.00000000E+00
  0.00000000E+00  0.00000000E+00  0.00000000E+00
  0.00000000E+00  0.00000000E+00  0.00000000E+00
  0.00000000E+00  0.00000000E+00  0.00000000E+00
  0.00000000E+00  0.00000000E+00  0.00000000E+00
  0.00000000E+00  0.00000000E+00  0.00000000E+00
  0.00000000E+00  0.00000000E+00  0.00000000E+00
  0.00000000E+00  0.00000000E+00  0.00000000E+00
  0.00000000E+00  0.00000000E+00  0.00000000E+00
  0.00000000E+00  0.00000000E+00  0.00000000E+00
  0.00000000E+00  0.00000000E+00  0.00000000E+00
  0.00000000E+00  0.00000000E+00  0.00000000E+00
  0.00000000E+00  0.00000000E+00  0.00000000E+00
  0.00000000E+00  0.00000000E+00  0.00000000E+00
  0.00000000E+00  0.00000000E+00  0.00000000E+00
  0.00000000E+00  0.00000000E+00  0.00000000E+00
  0.00000000E+00  0.00000000E+00  0.00000000E+00
  0.00000000E+00  0.00000000E+00  0.00000000E+00
  0.00000000E+00  0.00000000E+00  0.00000000E+00
  0.00000000E+00  0.00000000E+00  0.00000000E+00
  0.00000000E+00  0.00000000E+00  0.00000000E+00
  0.00000000E+00  0.00000000E+00  0.00000000E+00
  0.00000000E+00  0.00000000E+00  0.00000000E+00
  0.00000000E+00  0.00000000E+00  0.00000000E+00
  0.00000000E+00  0.00000000E+00  0.00000000E+00
  0.00000000E+00  0.00000000E+00  0.00000000E+00
  0.00000000E+00  0.00000000E+00  0.00000000E+00
  0.00000000E+00  0.00000000E+00  0.00000000E+00
  0.00000000E+00  0.00000000E+00  0.00000000E+00
  0.00000000E+00  0.00000000E+00  0.00000000E+00
  0.00000000E+00  0.00000000E+00  0.00000000E+00
  0.00000000E+00  0.00000000E+00  0.00000000E+00
  0.00000000E+00  0.00000000E+00  0.00000000E+00
  0.00000000E+00  0.00000000E+00  0.00000000E+00
  0.00000000E+00  0.00000000E+00  0.00000000E+00
  0.00000000E+00  0.00000000E+00  0.00000000E+00
  0.00000000E+00  0.00000000E+00  0.00000000E+00
  0.00000000E+00  0.00000000E+00  0.00000000E+00
  0.00000000E+00  0.00000000E+00  0.00000000E+00
  0.00000000E+00  0.00000000E+00  0.00000000E+00
  0.00000000E+00  0.00000000E+00  0.00000000E+00
  0.00000000E+00  0.00000000E+00  0.00000000E+00
  0.00000000E+00  0.00000000E+00  0.00000000E+00
  0.00000000E+00  0.00000000E+00  0.00000000E+00
  0.00000000E+00  0.00000000E+00  0.00000000E+00
  0.00000000E+00  0.00000000E+00  0.00000000E+00
  0.00000000E+00  0.00000000E+00  0.00000000E+00
  0.00000000E+00  0.00000000E+00  0.00000000E+00
  0.00000000E+00  0.00000000E+00  0.00000000E+00
  0.00000000E+00  0.00000000E+00  0.00000000E+00
  0.00000000E+00  0.00000000E+00  0.00000000E+00
  0.00000000E+00  0.00000000E+00  0.00000000E+00
  0.00000000E+00  0.00000000E+00  0.00000000E+00
  0.00000000E+00  0.00000000E+00  0.00000000E+00
  0.00000000E+00  0.00000000E+00  0.00000000E+00
  0.00000000E+00  0.00000000E+00  0.00000000E+00
  0.00000000E+00  0.00000000E+00  0.00000000E+00
  0.00000000E+00  0.00000000E+00  0.00000000E+00
  0.00000000E+00  0.00000000E+00  0.00000000E+00
  0.00000000E+00  0.00000000E+00  0.00000000E+00
  0.00000000E+00  0.00000000E+00  0.00000000E+00
  0.00000000E+00  0.00000000E+00  0.00000000E+00
  0.00000000E+00  0.00000000E+00  0.00000000E+00
  0.00000000E+00  0.00000000E+00  0.00000000E+00
  0.00000000E+00  0.00000000E+00  0.00000000E+00
  0.00000000E+00  0.00000000E+00  0.00000000E+00
  0.00000000E+00  0.00000000E+00  0.00000000E+00
  0.00000000E+00  0.00000000E+00  0.00000000E+00
  0.00000000E+00  0.00000000E+00  0.00000000E+00
  0.00000000E+00  0.00000000E+00  0.00000000E+00
  0.00000000E+00  0.00000000E+00  0.00000000E+00
  0.00000000E+00  0.00000000E+00  0.00000000E+00
  0.00000000E+00  0.00000000E+00  0.00000000E+00
  0.00000000E+00  0.00000000E+00  0.00000000E+00
  0.00000000E+00  0.00000000E+00  0.00000000E+00
  0.00000000E+00  0.00000000E+00  0.00000000E+00
  0.00000000E+00  0.00000000E+00  0.00000000E+00
  0.00000000E+00  0.00000000E+00  0.00000000E+00
  0.00000000E+00  0.00000000E+00  0.00000000E+00
  0.00000000E+00  0.00000000E+00  0.00000000E+00
  0.00000000E+00  0.00000000E+00  0.00000000E+00
  0.00000000E+00  0.00000000E+00  0.00000000E+00
  0.00000000E+00  0.00000000E+00  0.00000000E+00
  0.00000000E+00  0.00000000E+00  0.00000000E+00
  0.00000000E+00  0.00000000E+00  0.00000000E+00
  0.00000000E+00  0.00000000E+00  0.00000000E+00
  0.00000000E+00  0.00000000E+00  0.00000000E+00
  0.00000000E+00  0.00000000E+00  0.00000000E+00
  0.00000000E+00  0.00000000E+00  0.00000000E+00
  0.00000000E+00  0.00000000E+00  0.00000000E+00
  0.00000000E+00  0.00000000E+00  0.00000000E+00
  0.00000000E+00  0.00000000E+00  0.00000000E+00
  0.00000000E+00  0.00000000E+00  0.00000000E+00
  0.00000000E+00  0.00000000E+00  0.00000000E+00
  0.00000000E+00  0.00000000E+00  0.00000000E+00
  0.00000000E+00  0.00000000E+00  0.00000000E+00
  0.00000000E+00  0.00000000E+00  0.00000000E+00
  0.00000000E+00  0.00000000E+00  0.00000000E+00
  0.00000000E+00  0.00000000E+00  0.00000000E+00
  0.00000000E+00  0.00000000E+00  0.00000000E+00
