CIF file                                
   1.00000000000000     
    11.3519997597000071    0.0000000000000000    0.0000000000000000
     0.0000000000000000   11.3519997597000071    0.0000000000000000
     0.0000000000000000    0.0000000000000000    9.6265001297000055
   Ti   O    Ta   N 
    35    71     1     1
Direct
  0.1662780347528775  0.9999822326170539  0.7497367956950732
  0.5000642045314283 -0.0000034900066992  0.7531452813436935
  0.8337937960770170  0.0000021988364560  0.7497364334509361
  0.1658324003189688  0.3328901481461204  0.7497886724890704
  0.4999906582664959  0.3300570155200960  0.7565462372985062
  0.8341367203483095  0.3329006361781678  0.7498072085417967
  0.1658597458651698  0.6670931505632672  0.7498019875225994
  0.5000147365071801  0.6699414309937189  0.7565503072670582
  0.8341644904374171  0.6671034246573138  0.7498000678506754
  0.9999945380216476  0.1664042977189232  0.2501695212312257
  0.3330839795937671  0.1658799872064864  0.2504006461863158
  0.6668879380195918  0.1659451981165770  0.2504687719644371
  0.9999598518240672  0.5000073680301202  0.2483382304975683
  0.3271585170642463  0.4999725639898836  0.2408731239527426
  0.6727760224353719  0.5000382273572371  0.2408812936760754
  0.9999837240210847  0.8336105909879631  0.2501748102647763
  0.3330842657864039  0.8340698129751011  0.2504433044243843
  0.6668867947086589  0.8341234739497397  0.2504348644270297
  0.0000611184283811  0.0000037996746836  0.0001292895448993
  0.3323516782390581  0.9999782463153808  0.9995618477230951
  0.6677718755319563  0.0000206439743248  0.9996007655906036
  0.9999884365133684  0.3325541670845081  0.0007426149650168
  0.3316390765864011  0.3318279976322050  0.9992025800325903
  0.6683295924893391  0.3318289308088040  0.9992371084289406
  1.0000069837984662  0.6674574897962533  0.0007506145563882
  0.3316654827090847  0.6681666834019050  0.9992235356698643
  0.6683546984430661  0.6681806790437317  0.9992189682869376
  0.1664445775193874  0.1664729238296284  0.5000914723010503
  0.4999706928921447  0.1639451458927331  0.4994459453010578
  0.8335405867769529  0.1664903845932044  0.5000893834216049
  0.1641821561556860  0.4999905702156729  0.5019098567308276
  0.8358017341154707  0.5000003188268648  0.5019217823660401
  0.1664381650422434  0.8335008662923717  0.5000928230771405
  0.4999925400171813  0.8360559672175536  0.4994481944921052
  0.8335332699407821  0.8335124235731547  0.5000939860644605
  0.0000353721820000  0.9999375700786628  0.7939692884763400
  0.3332682485851852  0.9999450645762855  0.7942595909087588
  0.6668161089236816  0.9999972303325686  0.7942841700592144
  0.9999896130448219  0.3332658506701476  0.7939213658411109
  0.3331872363550210  0.3325190684507067  0.7943520671016465
  0.6668031345068550  0.3325432985531138  0.7943910116661814
  0.0000081516359369  0.6667234231589230  0.7939301778652486
  0.3331984993571867  0.6674683224176119  0.7943783411144091
  0.6668150615347266  0.6674615382397416  0.7943710026584541
  0.1669335804863452  0.1669000429306247  0.2940919644697523
  0.4999866341056172  0.1666690803756389  0.2947045860355712
  0.8330592775099088  0.1669088111826952  0.2940952389011854
  0.1640729330673131  0.4999791698609056  0.2961225663237705
  0.8358780276902223  0.5000162810092981  0.2961366172518549
  0.1669316481025742  0.8331074066895248  0.2940861403511069
  0.4999950457057552  0.8333279239214171  0.2947060427007834
  0.8330545131598377  0.8331138470051258  0.2941002475978262
  0.0000697498352052  0.1663822689641252  0.0443097002438528
  0.3328307288952168  0.1663236361752462  0.0442306615527798
  0.6671456442962386  0.1663530454293106  0.0442917941264829
  0.9999868219187263  0.5000060309415686  0.0442538228753291
  0.3290504779082718  0.4999984071426810  0.0388556904223050
  0.6709461221307631  0.5000093120138046  0.0388771034164308
  0.9999669055060392  0.8336268685708044  0.0443224331016068
  0.3328944415688245  0.8336544292910583  0.0442611328264750
  0.6671783965635218  0.8336842347784708  0.0442615596406376
  0.1668242446446685  0.9999931730783779  0.5437872389234641
  0.5000005012080236  0.0000002419816964  0.5443134091801886
  0.8331701169135490  0.0000024159056266  0.5437945967247709
  0.1669897451424094  0.3333880795570708  0.5445310038966056
  0.4999759638844853  0.3327868692871823  0.5451229876235850
  0.8329637915368183  0.3333997720078572  0.5445471653465256
  0.1670031034495339  0.6665931884119404  0.5445264436157056
  0.4999671664023260  0.6672119553224499  0.5451237651311033
  0.8329745384793862  0.6666047430040907  0.5445388805591219
  0.1665539955164080  0.9999624364975407  0.9558129646408688
  0.5000409138490203  0.0000207900582949  0.9562390859623815
  0.8335186077501708  0.0000654845000100  0.9558316196858150
  0.1661890141028996  0.3322803483332521  0.9561461308653054
  0.4999880834758980  0.3324561524983544  0.9574910477824505
  0.8337971281094879  0.3322334306249418  0.9561767462141539
  0.1661999915609877  0.6677698976716957  0.9561700428070697
  0.5000121377028881  0.6675440759726516  0.9574927305809074
  0.8338077085706588  0.6677482959562405  0.9561613475747409
  0.9999952566758661  0.1667818776190123  0.4559792037010800
  0.3336378986262311  0.1668244813493344  0.4562251673950430
  0.6663416245883694  0.1668441522210187  0.4562490635850098
  0.9999850010013260  0.4999986329208311  0.4589744560869179
  0.3325499023950046  0.4999847383866335  0.4544359465342517
  0.6674062167063273  0.5000115926768540  0.4544578445593431
  0.9999928232087066  0.8332163109806041  0.4559827415382185
  0.3336427405324138  0.8331666309336019  0.4562370133150111
  0.6663454174712481  0.8331649363639509  0.4562394092674071
  0.1665535923092154  0.1665401489691878  0.7058518100953102
  0.5000309782122698  0.1663440155431383  0.7065861421616826
  0.8334771670910713  0.1665537398470721  0.7058445729443982
  0.1668839549677000  0.4999960814796190  0.7070576158256517
  0.4999957927986354  0.4999994794426311  0.7109859102015480
  0.8331194779889548  0.5000002268328254  0.7070703208984614
  0.1665583966416626  0.8334312974434865  0.7058265076643008
  0.5000526967266830  0.8336509331622676  0.7065826111502010
  0.8334739292712334  0.8334473456713344  0.7058494638491823
  0.0000124714685548  0.0000061804863628  0.2063034872078482
  0.3336907756873743  0.9999886676277494  0.2063062420847948
  0.6663177185950546  0.0000184786414748  0.2063430719128756
  0.9999597245667726  0.3330363542812101  0.2058172639565513
  0.3347807791807755  0.3333867664255066  0.2056421541541301
  0.6651856843513506  0.3334193353668737  0.2056949550780388
 -0.0000015439391611  0.6669720542605082  0.2058290347473483
  0.3347660918909588  0.6665902899370981  0.2056744391048303
  0.6651956923126700  0.6666200233309980  0.2056656185441931
  0.4999757989964170  0.5000010337285593  0.5012972685502115
  0.4999717290222468  0.5000151746303918  0.2797608126058675
 
  0.00000000E+00  0.00000000E+00  0.00000000E+00
  0.00000000E+00  0.00000000E+00  0.00000000E+00
  0.00000000E+00  0.00000000E+00  0.00000000E+00
  0.00000000E+00  0.00000000E+00  0.00000000E+00
  0.00000000E+00  0.00000000E+00  0.00000000E+00
  0.00000000E+00  0.00000000E+00  0.00000000E+00
  0.00000000E+00  0.00000000E+00  0.00000000E+00
  0.00000000E+00  0.00000000E+00  0.00000000E+00
  0.00000000E+00  0.00000000E+00  0.00000000E+00
  0.00000000E+00  0.00000000E+00  0.00000000E+00
  0.00000000E+00  0.00000000E+00  0.00000000E+00
  0.00000000E+00  0.00000000E+00  0.00000000E+00
  0.00000000E+00  0.00000000E+00  0.00000000E+00
  0.00000000E+00  0.00000000E+00  0.00000000E+00
  0.00000000E+00  0.00000000E+00  0.00000000E+00
  0.00000000E+00  0.00000000E+00  0.00000000E+00
  0.00000000E+00  0.00000000E+00  0.00000000E+00
  0.00000000E+00  0.00000000E+00  0.00000000E+00
  0.00000000E+00  0.00000000E+00  0.00000000E+00
  0.00000000E+00  0.00000000E+00  0.00000000E+00
  0.00000000E+00  0.00000000E+00  0.00000000E+00
  0.00000000E+00  0.00000000E+00  0.00000000E+00
  0.00000000E+00  0.00000000E+00  0.00000000E+00
  0.00000000E+00  0.00000000E+00  0.00000000E+00
  0.00000000E+00  0.00000000E+00  0.00000000E+00
  0.00000000E+00  0.00000000E+00  0.00000000E+00
  0.00000000E+00  0.00000000E+00  0.00000000E+00
  0.00000000E+00  0.00000000E+00  0.00000000E+00
  0.00000000E+00  0.00000000E+00  0.00000000E+00
  0.00000000E+00  0.00000000E+00  0.00000000E+00
  0.00000000E+00  0.00000000E+00  0.00000000E+00
  0.00000000E+00  0.00000000E+00  0.00000000E+00
  0.00000000E+00  0.00000000E+00  0.00000000E+00
  0.00000000E+00  0.00000000E+00  0.00000000E+00
  0.00000000E+00  0.00000000E+00  0.00000000E+00
  0.00000000E+00  0.00000000E+00  0.00000000E+00
  0.00000000E+00  0.00000000E+00  0.00000000E+00
  0.00000000E+00  0.00000000E+00  0.00000000E+00
  0.00000000E+00  0.00000000E+00  0.00000000E+00
  0.00000000E+00  0.00000000E+00  0.00000000E+00
  0.00000000E+00  0.00000000E+00  0.00000000E+00
  0.00000000E+00  0.00000000E+00  0.00000000E+00
  0.00000000E+00  0.00000000E+00  0.00000000E+00
  0.00000000E+00  0.00000000E+00  0.00000000E+00
  0.00000000E+00  0.00000000E+00  0.00000000E+00
  0.00000000E+00  0.00000000E+00  0.00000000E+00
  0.00000000E+00  0.00000000E+00  0.00000000E+00
  0.00000000E+00  0.00000000E+00  0.00000000E+00
  0.00000000E+00  0.00000000E+00  0.00000000E+00
  0.00000000E+00  0.00000000E+00  0.00000000E+00
  0.00000000E+00  0.00000000E+00  0.00000000E+00
  0.00000000E+00  0.00000000E+00  0.00000000E+00
  0.00000000E+00  0.00000000E+00  0.00000000E+00
  0.00000000E+00  0.00000000E+00  0.00000000E+00
  0.00000000E+00  0.00000000E+00  0.00000000E+00
  0.00000000E+00  0.00000000E+00  0.00000000E+00
  0.00000000E+00  0.00000000E+00  0.00000000E+00
  0.00000000E+00  0.00000000E+00  0.00000000E+00
  0.00000000E+00  0.00000000E+00  0.00000000E+00
  0.00000000E+00  0.00000000E+00  0.00000000E+00
  0.00000000E+00  0.00000000E+00  0.00000000E+00
  0.00000000E+00  0.00000000E+00  0.00000000E+00
  0.00000000E+00  0.00000000E+00  0.00000000E+00
  0.00000000E+00  0.00000000E+00  0.00000000E+00
  0.00000000E+00  0.00000000E+00  0.00000000E+00
  0.00000000E+00  0.00000000E+00  0.00000000E+00
  0.00000000E+00  0.00000000E+00  0.00000000E+00
  0.00000000E+00  0.00000000E+00  0.00000000E+00
  0.00000000E+00  0.00000000E+00  0.00000000E+00
  0.00000000E+00  0.00000000E+00  0.00000000E+00
  0.00000000E+00  0.00000000E+00  0.00000000E+00
  0.00000000E+00  0.00000000E+00  0.00000000E+00
  0.00000000E+00  0.00000000E+00  0.00000000E+00
  0.00000000E+00  0.00000000E+00  0.00000000E+00
  0.00000000E+00  0.00000000E+00  0.00000000E+00
  0.00000000E+00  0.00000000E+00  0.00000000E+00
  0.00000000E+00  0.00000000E+00  0.00000000E+00
  0.00000000E+00  0.00000000E+00  0.00000000E+00
  0.00000000E+00  0.00000000E+00  0.00000000E+00
  0.00000000E+00  0.00000000E+00  0.00000000E+00
  0.00000000E+00  0.00000000E+00  0.00000000E+00
  0.00000000E+00  0.00000000E+00  0.00000000E+00
  0.00000000E+00  0.00000000E+00  0.00000000E+00
  0.00000000E+00  0.00000000E+00  0.00000000E+00
  0.00000000E+00  0.00000000E+00  0.00000000E+00
  0.00000000E+00  0.00000000E+00  0.00000000E+00
  0.00000000E+00  0.00000000E+00  0.00000000E+00
  0.00000000E+00  0.00000000E+00  0.00000000E+00
  0.00000000E+00  0.00000000E+00  0.00000000E+00
  0.00000000E+00  0.00000000E+00  0.00000000E+00
  0.00000000E+00  0.00000000E+00  0.00000000E+00
  0.00000000E+00  0.00000000E+00  0.00000000E+00
  0.00000000E+00  0.00000000E+00  0.00000000E+00
  0.00000000E+00  0.00000000E+00  0.00000000E+00
  0.00000000E+00  0.00000000E+00  0.00000000E+00
  0.00000000E+00  0.00000000E+00  0.00000000E+00
  0.00000000E+00  0.00000000E+00  0.00000000E+00
  0.00000000E+00  0.00000000E+00  0.00000000E+00
  0.00000000E+00  0.00000000E+00  0.00000000E+00
  0.00000000E+00  0.00000000E+00  0.00000000E+00
  0.00000000E+00  0.00000000E+00  0.00000000E+00
  0.00000000E+00  0.00000000E+00  0.00000000E+00
  0.00000000E+00  0.00000000E+00  0.00000000E+00
  0.00000000E+00  0.00000000E+00  0.00000000E+00
  0.00000000E+00  0.00000000E+00  0.00000000E+00
  0.00000000E+00  0.00000000E+00  0.00000000E+00
  0.00000000E+00  0.00000000E+00  0.00000000E+00
  0.00000000E+00  0.00000000E+00  0.00000000E+00
