CIF file                                
   1.00000000000000     
    11.3519997597000071    0.0000000000000000    0.0000000000000000
     0.0000000000000000   11.3519997597000071    0.0000000000000000
     0.0000000000000000    0.0000000000000000    9.6265001297000055
   Ti   O    Ta   N 
    35    71     1     1
Direct
  0.1664404423551877  0.9999848636511827  0.7496309212948117
  0.5000320215517288  0.9999965925917580  0.7519092177146476
  0.8335746844176471  0.0000052094871284  0.7496415789136023
  0.1662957333517641  0.3335682609116234  0.7497101949225935
  0.5000049167011568  0.3327171484725559  0.7550172105458702
  0.8337017347339607  0.3335768057836038  0.7497299138470311
  0.1662806420554556  0.6664285130082532  0.7497339653086981
  0.4999986581646494  0.6672841766081042  0.7550250488050276
  0.8336955959987811  0.6664297965985005  0.7497205925524123
 -0.0000005746145774  0.1665252563532138  0.2502217949727513
  0.3331088742575329  0.1665342841939452  0.2497144247978768
  0.6668670162141346  0.1665653929422419  0.2497655564841045
  0.9999823251296255  0.4999949445867266  0.2490143755945222
  0.3354449421752675  0.5000002903388109  0.2452201081515974
  0.6645036662540242  0.5000160417671579  0.2452772915027730
  0.9999954045605827  0.8334730824743577  0.2502285269420211
  0.3331191398654877  0.8334568408307798  0.2497385137275359
  0.6668809111343772  0.8334746538517395  0.2497370069384940
  0.0000756162246921  0.9999957684996160  0.0000135127086264
  0.3327806373606194  0.9999672635651971  0.9996235596604508
  0.6673571515884753  0.0000390415954204  0.9996626467061583
 -0.0000001669042818  0.3328707561250673  0.0004226712735946
  0.3319831522701716  0.3325556931482521  0.0000298848698614
  0.6680035169404541  0.3326082168124826  0.0000631084096989
  1.0000020013194129  0.6671258181109194  0.0004331347417744
  0.3319940648332315  0.6674010160402151  0.0000484067591110
  0.6680130518729814  0.6674449936085006  0.0000591428125648
  0.1666072456390240  0.1667032578610075  0.5001540522868334
  0.4999796868807705  0.1649088548147840  0.5000192461540863
  0.8333880176186119  0.1667201327450255  0.5001511149993152
  0.1639251387911130  0.4999918809006260  0.4994287797965432
  0.8359829687928693  0.5000024104037020  0.4994161969730448
  0.1666112999318446  0.8332731020703157  0.5001563873845882
  0.5000013463869325  0.8350815933491667  0.5000107337979341
  0.8333907282580039  0.8332899349064443  0.5001589660077408
  0.0000334007937536  0.9999480591122409  0.7938823411263661
  0.3331899768136102  0.9999742121687225  0.7939206129101000
  0.6668724320461595  0.9999995825414147  0.7939401588119013
  0.9999952242153581  0.3331178069174937  0.7939811675017371
  0.3330509426828206  0.3325051417312341  0.7942271671754781
  0.6669511280690840  0.3325376426226460  0.7942758515128076
  0.9999993637095091  0.6668766586839323  0.7939931791899609
  0.3330475074670808  0.6674821508838018  0.7942602125865341
  0.6669529131286126  0.6674792296448414  0.7942457949299642
  0.1666631985247677  0.1661715019908128  0.2943593043732207
  0.4999871948150615  0.1669856667623943  0.2943532241810997
  0.8333356545503344  0.1661740136549556  0.2943559809338193
  0.1646679415228314  0.4999820465987526  0.2962354554472612
  0.8352934045736299  0.5000122690020234  0.2962453140629004
  0.1666629707501962  0.8338319830639215  0.2943523410423046
  0.5000020943037691  0.8330042171912644  0.2943485433950709
  0.8333369548517943  0.8338357978725678  0.2943649002613701
  0.0000755509740046  0.1663864128364615  0.0441840498828602
  0.3332031604480588  0.1660592620482474  0.0434731028246129
  0.6667634856953977  0.1660952470681826  0.0435346442291431
  0.9999921813633414  0.5000001348281020  0.0440835772800586
  0.3317349267841926  0.4999965748463951  0.0407863778455542
  0.6682732401022463  0.5000076238573863  0.0408239378053295
  0.9999694533416574  0.8336121751774060  0.0441995513484227
  0.3332818135859926  0.8339147954884527  0.0435070379235817
  0.6668051576028087  0.8339469047669942  0.0434962763487754
  0.1668017603005190  0.9999934735774275  0.5438532515484618
  0.5000003669352844  0.9999971262301692  0.5440962912762151
  0.8331989084507764  0.0000041102175038  0.5438588824168209
  0.1664135734863251  0.3332048211844306  0.5444435224124041
  0.4999664058468719  0.3326112531761508  0.5458686186799198
  0.8335499521528709  0.3332166223158116  0.5444427095673311
  0.1664196702663397  0.6667793000790940  0.5444406644567594
  0.4999562336369999  0.6673881791163637  0.5458732547296463
  0.8335628415942232  0.6667906579871987  0.5444454944031322
  0.1665059935039427  0.9999405599698207  0.9557363928369015
  0.5000372591150143  0.0000172005398770  0.9558705061429148
  0.8335697637565638  0.0000705003847364  0.9557436406360093
  0.1661763392060014  0.3325336102224262  0.9559016382713038
  0.4999946987873419  0.3324876634993074  0.9575454398324230
  0.8338246736001189  0.3324872837976313  0.9559385458779334
  0.1661738386256391  0.6675133636045132  0.9559342000473343
  0.5000084782406208  0.6675082755627342  0.9575489104915637
  0.8338231015020906  0.6674905977759992  0.9559186341118028
  0.9999992638092134  0.1667044759518241  0.4561082558544625
  0.3335624133792902  0.1669165771881748  0.4560029505798969
  0.6664216593082056  0.1669297906772389  0.4560233526967288
  0.9999770454662708  0.4999986866812081  0.4587715212414318
  0.3304510108416076  0.4999857338876020  0.4583272867443345
  0.6694670118073628  0.5000116343560193  0.4583463151850302
  0.9999993111656980  0.8332919999190773  0.4561124311284255
  0.3335711441062455  0.8330773192810756  0.4560101740270917
  0.6664292077827664  0.8330730556509015  0.4560117616780143
  0.1665383876608635  0.1665143332294739  0.7058528192942709
  0.5000343605821020  0.1664449108898120  0.7062877132659473
  0.8334894197343706  0.1665270909291500  0.7058431277070384
  0.1665707969344462  0.4999988217220858  0.7073215162457517
  0.4999979872204020  0.5000008885256326  0.7113874985907029
  0.8334277855366068  0.4999996673199306  0.7073229054649343
  0.1665422737247596  0.8334650391193609  0.7058343789031128
  0.5000457109419583  0.8335506846219448  0.7062878794819274
  0.8334853077739501  0.8334795014579821  0.7058516353076451
  0.0000211461930385  0.0000057846109020  0.2059657292945965
  0.3334830729653523  0.9999965382637005  0.2058601778472392
  0.6665330251958045  0.0000109463684463  0.2058860665709907
  0.9999770867920305  0.3328176070997073  0.2057395241177775
  0.3311294566514108  0.3322224731665827  0.2043907996865644
  0.6688400272470083  0.3322480061511294  0.2044570669260896
  0.0000022420598476  0.6671762638806571  0.2057577551918251
  0.3311046583589889  0.6677625224897400  0.2044207298205830
  0.6688644274470987  0.6677824461291664  0.2044158177390131
  0.4999202959301429  0.5000015112733525  0.4922132930101602
  0.4999677395480284  0.5000220895479693  0.2874110253711085
 
  0.00000000E+00  0.00000000E+00  0.00000000E+00
  0.00000000E+00  0.00000000E+00  0.00000000E+00
  0.00000000E+00  0.00000000E+00  0.00000000E+00
  0.00000000E+00  0.00000000E+00  0.00000000E+00
  0.00000000E+00  0.00000000E+00  0.00000000E+00
  0.00000000E+00  0.00000000E+00  0.00000000E+00
  0.00000000E+00  0.00000000E+00  0.00000000E+00
  0.00000000E+00  0.00000000E+00  0.00000000E+00
  0.00000000E+00  0.00000000E+00  0.00000000E+00
  0.00000000E+00  0.00000000E+00  0.00000000E+00
  0.00000000E+00  0.00000000E+00  0.00000000E+00
  0.00000000E+00  0.00000000E+00  0.00000000E+00
  0.00000000E+00  0.00000000E+00  0.00000000E+00
  0.00000000E+00  0.00000000E+00  0.00000000E+00
  0.00000000E+00  0.00000000E+00  0.00000000E+00
  0.00000000E+00  0.00000000E+00  0.00000000E+00
  0.00000000E+00  0.00000000E+00  0.00000000E+00
  0.00000000E+00  0.00000000E+00  0.00000000E+00
  0.00000000E+00  0.00000000E+00  0.00000000E+00
  0.00000000E+00  0.00000000E+00  0.00000000E+00
  0.00000000E+00  0.00000000E+00  0.00000000E+00
  0.00000000E+00  0.00000000E+00  0.00000000E+00
  0.00000000E+00  0.00000000E+00  0.00000000E+00
  0.00000000E+00  0.00000000E+00  0.00000000E+00
  0.00000000E+00  0.00000000E+00  0.00000000E+00
  0.00000000E+00  0.00000000E+00  0.00000000E+00
  0.00000000E+00  0.00000000E+00  0.00000000E+00
  0.00000000E+00  0.00000000E+00  0.00000000E+00
  0.00000000E+00  0.00000000E+00  0.00000000E+00
  0.00000000E+00  0.00000000E+00  0.00000000E+00
  0.00000000E+00  0.00000000E+00  0.00000000E+00
  0.00000000E+00  0.00000000E+00  0.00000000E+00
  0.00000000E+00  0.00000000E+00  0.00000000E+00
  0.00000000E+00  0.00000000E+00  0.00000000E+00
  0.00000000E+00  0.00000000E+00  0.00000000E+00
  0.00000000E+00  0.00000000E+00  0.00000000E+00
  0.00000000E+00  0.00000000E+00  0.00000000E+00
  0.00000000E+00  0.00000000E+00  0.00000000E+00
  0.00000000E+00  0.00000000E+00  0.00000000E+00
  0.00000000E+00  0.00000000E+00  0.00000000E+00
  0.00000000E+00  0.00000000E+00  0.00000000E+00
  0.00000000E+00  0.00000000E+00  0.00000000E+00
  0.00000000E+00  0.00000000E+00  0.00000000E+00
  0.00000000E+00  0.00000000E+00  0.00000000E+00
  0.00000000E+00  0.00000000E+00  0.00000000E+00
  0.00000000E+00  0.00000000E+00  0.00000000E+00
  0.00000000E+00  0.00000000E+00  0.00000000E+00
  0.00000000E+00  0.00000000E+00  0.00000000E+00
  0.00000000E+00  0.00000000E+00  0.00000000E+00
  0.00000000E+00  0.00000000E+00  0.00000000E+00
  0.00000000E+00  0.00000000E+00  0.00000000E+00
  0.00000000E+00  0.00000000E+00  0.00000000E+00
  0.00000000E+00  0.00000000E+00  0.00000000E+00
  0.00000000E+00  0.00000000E+00  0.00000000E+00
  0.00000000E+00  0.00000000E+00  0.00000000E+00
  0.00000000E+00  0.00000000E+00  0.00000000E+00
  0.00000000E+00  0.00000000E+00  0.00000000E+00
  0.00000000E+00  0.00000000E+00  0.00000000E+00
  0.00000000E+00  0.00000000E+00  0.00000000E+00
  0.00000000E+00  0.00000000E+00  0.00000000E+00
  0.00000000E+00  0.00000000E+00  0.00000000E+00
  0.00000000E+00  0.00000000E+00  0.00000000E+00
  0.00000000E+00  0.00000000E+00  0.00000000E+00
  0.00000000E+00  0.00000000E+00  0.00000000E+00
  0.00000000E+00  0.00000000E+00  0.00000000E+00
  0.00000000E+00  0.00000000E+00  0.00000000E+00
  0.00000000E+00  0.00000000E+00  0.00000000E+00
  0.00000000E+00  0.00000000E+00  0.00000000E+00
  0.00000000E+00  0.00000000E+00  0.00000000E+00
  0.00000000E+00  0.00000000E+00  0.00000000E+00
  0.00000000E+00  0.00000000E+00  0.00000000E+00
  0.00000000E+00  0.00000000E+00  0.00000000E+00
  0.00000000E+00  0.00000000E+00  0.00000000E+00
  0.00000000E+00  0.00000000E+00  0.00000000E+00
  0.00000000E+00  0.00000000E+00  0.00000000E+00
  0.00000000E+00  0.00000000E+00  0.00000000E+00
  0.00000000E+00  0.00000000E+00  0.00000000E+00
  0.00000000E+00  0.00000000E+00  0.00000000E+00
  0.00000000E+00  0.00000000E+00  0.00000000E+00
  0.00000000E+00  0.00000000E+00  0.00000000E+00
  0.00000000E+00  0.00000000E+00  0.00000000E+00
  0.00000000E+00  0.00000000E+00  0.00000000E+00
  0.00000000E+00  0.00000000E+00  0.00000000E+00
  0.00000000E+00  0.00000000E+00  0.00000000E+00
  0.00000000E+00  0.00000000E+00  0.00000000E+00
  0.00000000E+00  0.00000000E+00  0.00000000E+00
  0.00000000E+00  0.00000000E+00  0.00000000E+00
  0.00000000E+00  0.00000000E+00  0.00000000E+00
  0.00000000E+00  0.00000000E+00  0.00000000E+00
  0.00000000E+00  0.00000000E+00  0.00000000E+00
  0.00000000E+00  0.00000000E+00  0.00000000E+00
  0.00000000E+00  0.00000000E+00  0.00000000E+00
  0.00000000E+00  0.00000000E+00  0.00000000E+00
  0.00000000E+00  0.00000000E+00  0.00000000E+00
  0.00000000E+00  0.00000000E+00  0.00000000E+00
  0.00000000E+00  0.00000000E+00  0.00000000E+00
  0.00000000E+00  0.00000000E+00  0.00000000E+00
  0.00000000E+00  0.00000000E+00  0.00000000E+00
  0.00000000E+00  0.00000000E+00  0.00000000E+00
  0.00000000E+00  0.00000000E+00  0.00000000E+00
  0.00000000E+00  0.00000000E+00  0.00000000E+00
  0.00000000E+00  0.00000000E+00  0.00000000E+00
  0.00000000E+00  0.00000000E+00  0.00000000E+00
  0.00000000E+00  0.00000000E+00  0.00000000E+00
  0.00000000E+00  0.00000000E+00  0.00000000E+00
  0.00000000E+00  0.00000000E+00  0.00000000E+00
  0.00000000E+00  0.00000000E+00  0.00000000E+00
  0.00000000E+00  0.00000000E+00  0.00000000E+00
