CIF file                                
   1.00000000000000     
    11.3519997597000071    0.0000000000000000    0.0000000000000000
     0.0000000000000000   11.3519997597000071    0.0000000000000000
     0.0000000000000000    0.0000000000000000    9.6265001297000055
   Ti   O    Ta   N 
    35    71     1     1
Direct
  0.1660768343252260  0.9999915785035055  0.7501464528369068
  0.5000022417985400  1.0000031713374602  0.7553803208583010
  0.8339461896411603  0.9999998651459979  0.7501407968107763
  0.1657099239733254  0.3320149181290442  0.7497634839963137
  0.5000079389120722  0.3256789348230911  0.7578714238619759
  0.8342984412136432  0.3320219067314101  0.7497776041154741
  0.1657225106006674  0.6679760512487538  0.7497697458956059
  0.5000103037513951  0.6743346003306575  0.7578709542124796
  0.8343074932163838  0.6679754773480935  0.7497770385405593
  0.9999856278691195  0.1662951358907990  0.2502282627324190
  0.3328654702482058  0.1655132541681728  0.2510601560639945
  0.6671139424094904  0.1655298799010880  0.2510516659549755
  0.9999791851452758  0.4999979537591407  0.2470120402604256
  0.3191259392321552  0.4999901531997274  0.2376188908746901
  0.6808373605499578  0.5000209445874543  0.2376577849349329
  0.9999906188915129  0.8337001819561256  0.2502352192673801
  0.3328734043962768  0.8344774937048540  0.2510661001504024
  0.6671225975830979  0.8345058819797313  0.2510391445481159
  0.0000470463908861 -0.0000028317698382  0.0003524256497888
  0.3319121202441599  0.9999905914359248  0.9999509896973903
  0.6681778438991215  0.0000234333904075  0.9999186497498721
  0.0000035415800561  0.3320087128217150  0.0005190956830724
  0.3314246849556688  0.3306624781874958  0.9984719708807375
  0.6685800851278151  0.3306996179293618  0.9984903445702334
  0.0000093208172049  0.6679919002834702  0.0005205927824151
  0.3314334039434899  0.6693215554029430  0.9984865451217417
  0.6685835680827659  0.6693363699088763  0.9984830637995152
  0.1663499577739716  0.1660817364920943  0.4999450695340129
  0.5000016264546827  0.1629154479867680  0.4985053643151105
  0.8336343974597290  0.1660965760286782  0.4999479561377538
  0.1637048258237455  0.4999940011617588  0.5047376360174308
  0.8362424726880938  0.4999983389500348  0.5047450456563226
  0.1663522232566770  0.8338985001571414  0.4999409097620997
  0.5000021661493577  0.8370740889892838  0.4985030383243182
  0.8336308015966231  0.8339022831289380  0.4999499066895700
  0.0000222273543709  0.9999667787503413  0.7941880896183989
  0.3331249316158133  0.9999785612183737  0.7951427988077946
  0.6669045356036030  0.0000020681878253  0.7951405018856543
  1.0000005879862053  0.3337769135421412  0.7934259586275488
  0.3333913848349102  0.3323996072702366  0.7942462231455194
  0.6666147786926905  0.3324132360096183  0.7942571373208408
  0.0000101940467391  0.6662207503528347  0.7934304772687449
  0.3333962343087059  0.6675890886893953  0.7942558753865439
  0.6666175753090700  0.6675893201225345  0.7942529582184200
  0.1669572676421639  0.1675131524578975  0.2940109344641260
  0.4999959577062547  0.1664403056082002  0.2950080391222366
  0.8330271036661857  0.1675124762351126  0.2940115557613314
  0.1626015129130739  0.4999911179288746  0.2977208314282004
  0.8373592266126182  0.5000071285957405  0.2977338435154470
  0.1669611701376655  0.8324875226686124  0.2940101473691904
  0.5000002712386490  0.8335621974491801  0.2950066348295041
  0.8330295787201565  0.8324957761316427  0.2940119969395889
  0.0000218007207746  0.1665183135738541  0.0443867708529293
  0.3324516432910135  0.1663792453842546  0.0447702224914912
  0.6675594421542853  0.1663974494030326  0.0447777377254514
  0.9999987036159246  0.5000029123873988  0.0448561609654959
  0.3284450415940806  0.4999952901952994  0.0381558747488677
  0.6715571865764147  0.5000109624939121  0.0381754293977695
  0.0000066944713652  0.8334810662090664  0.0443968585076173
  0.3324672870669324  0.8336102187043403  0.0447805619789388
  0.6675664935359725  0.8336296984043129  0.0447687422132840
  0.1667651442862796  0.9999933312452053  0.5438122306727050
  0.4999987842332314  0.9999970654851501  0.5455825089843309
  0.8332341732091677  1.0000004413912718  0.5438163840307233
  0.1686331447616909  0.3337352675234463  0.5442713288260549
  0.4999886187927984  0.3314738409896324  0.5463879531517962
  0.8313346486613223  0.3337431491267049  0.5442756613242199
  0.1686356324634597  0.6662500351532268  0.5442672314633281
  0.4999857742470482  0.6685223286003231  0.5463931995764576
  0.8313412436750900  0.6662545279198164  0.5442705135286819
  0.1664243909241371  0.9999929750847506  0.9560915964362011
  0.5000188544400400  0.0000089228933387  0.9576784013563153
  0.8336318072150977  0.0000168329124204  0.9560866079645591
  0.1661680666632122  0.3322111541638760  0.9560176795772879
  0.5000023425755313  0.3321878283770274  0.9580952094923663
  0.8338352368397545  0.3322072034495478  0.9560275529246968
  0.1661739804396446  0.6678100360241551  0.9560219419633668
  0.5000067817792240  0.6678162343497414  0.9580989957351490
  0.8338361512425505  0.6678073145548638  0.9560260671916454
  0.9999933417657668  0.1672703323977671  0.4560557775576936
  0.3336368989494965  0.1665158261162186  0.4563318709047398
  0.6663568946584719  0.1665387202973549  0.4563407749120349
  0.9999761293854554  0.4999945044803470  0.4622700643748240
  0.3380699057623235  0.4999941843908409  0.4479629585401416
  0.6618747480314019  0.5000050176361548  0.4479737982564704
  0.9999942814623519  0.8327275277714645  0.4560601670413793
  0.3336384942842344  0.8334613664296227  0.4563357205813770
  0.6663561805809871  0.8334803965057284  0.4563340350953908
  0.1663867445816101  0.1665652937052723  0.7057929244395376
  0.5000084087436294  0.1654211382275670  0.7081268260981415
  0.8336377505391560  0.1665744917619090  0.7057957077607775
  0.1678943412169873  0.4999960884321162  0.7068793215637673
  0.4999923534043472  0.4999990359303619  0.7112050580955889
  0.8321132020358551  0.5000002464467974  0.7068897587013472
  0.1663961676996085  0.8334180939622191  0.7057837738619196
  0.5000145309037408  0.8345804484622547  0.7081284411333886
  0.8336308170590576  0.8334230753870486  0.7057943013939210
 -0.0000003013372508 -0.0000007736577746  0.2066189887486805
  0.3335291154845998  0.9999955721762008  0.2070931887939477
  0.6664748419723632  0.0000141271702032  0.2070903250402266
  0.9999674948894822  0.3333941523004282  0.2058092524763336
  0.3359697127931270  0.3340496954445631  0.2057097970784548
  0.6640097525160189  0.3340684710217356  0.2057134440839933
  0.9999890622749160  0.6666031917339547  0.2058169990034179
  0.3359696172823961  0.6659371479205759  0.2057202455956044
  0.6640172550748503  0.6659550172410772  0.2057143239266404
  0.4999570315995455  0.4999943550330340  0.5123399241318767
  0.4999755085190551  0.5000034248262607  0.2612331137305769
 
  0.00000000E+00  0.00000000E+00  0.00000000E+00
  0.00000000E+00  0.00000000E+00  0.00000000E+00
  0.00000000E+00  0.00000000E+00  0.00000000E+00
  0.00000000E+00  0.00000000E+00  0.00000000E+00
  0.00000000E+00  0.00000000E+00  0.00000000E+00
  0.00000000E+00  0.00000000E+00  0.00000000E+00
  0.00000000E+00  0.00000000E+00  0.00000000E+00
  0.00000000E+00  0.00000000E+00  0.00000000E+00
  0.00000000E+00  0.00000000E+00  0.00000000E+00
  0.00000000E+00  0.00000000E+00  0.00000000E+00
  0.00000000E+00  0.00000000E+00  0.00000000E+00
  0.00000000E+00  0.00000000E+00  0.00000000E+00
  0.00000000E+00  0.00000000E+00  0.00000000E+00
  0.00000000E+00  0.00000000E+00  0.00000000E+00
  0.00000000E+00  0.00000000E+00  0.00000000E+00
  0.00000000E+00  0.00000000E+00  0.00000000E+00
  0.00000000E+00  0.00000000E+00  0.00000000E+00
  0.00000000E+00  0.00000000E+00  0.00000000E+00
  0.00000000E+00  0.00000000E+00  0.00000000E+00
  0.00000000E+00  0.00000000E+00  0.00000000E+00
  0.00000000E+00  0.00000000E+00  0.00000000E+00
  0.00000000E+00  0.00000000E+00  0.00000000E+00
  0.00000000E+00  0.00000000E+00  0.00000000E+00
  0.00000000E+00  0.00000000E+00  0.00000000E+00
  0.00000000E+00  0.00000000E+00  0.00000000E+00
  0.00000000E+00  0.00000000E+00  0.00000000E+00
  0.00000000E+00  0.00000000E+00  0.00000000E+00
  0.00000000E+00  0.00000000E+00  0.00000000E+00
  0.00000000E+00  0.00000000E+00  0.00000000E+00
  0.00000000E+00  0.00000000E+00  0.00000000E+00
  0.00000000E+00  0.00000000E+00  0.00000000E+00
  0.00000000E+00  0.00000000E+00  0.00000000E+00
  0.00000000E+00  0.00000000E+00  0.00000000E+00
  0.00000000E+00  0.00000000E+00  0.00000000E+00
  0.00000000E+00  0.00000000E+00  0.00000000E+00
  0.00000000E+00  0.00000000E+00  0.00000000E+00
  0.00000000E+00  0.00000000E+00  0.00000000E+00
  0.00000000E+00  0.00000000E+00  0.00000000E+00
  0.00000000E+00  0.00000000E+00  0.00000000E+00
  0.00000000E+00  0.00000000E+00  0.00000000E+00
  0.00000000E+00  0.00000000E+00  0.00000000E+00
  0.00000000E+00  0.00000000E+00  0.00000000E+00
  0.00000000E+00  0.00000000E+00  0.00000000E+00
  0.00000000E+00  0.00000000E+00  0.00000000E+00
  0.00000000E+00  0.00000000E+00  0.00000000E+00
  0.00000000E+00  0.00000000E+00  0.00000000E+00
  0.00000000E+00  0.00000000E+00  0.00000000E+00
  0.00000000E+00  0.00000000E+00  0.00000000E+00
  0.00000000E+00  0.00000000E+00  0.00000000E+00
  0.00000000E+00  0.00000000E+00  0.00000000E+00
  0.00000000E+00  0.00000000E+00  0.00000000E+00
  0.00000000E+00  0.00000000E+00  0.00000000E+00
  0.00000000E+00  0.00000000E+00  0.00000000E+00
  0.00000000E+00  0.00000000E+00  0.00000000E+00
  0.00000000E+00  0.00000000E+00  0.00000000E+00
  0.00000000E+00  0.00000000E+00  0.00000000E+00
  0.00000000E+00  0.00000000E+00  0.00000000E+00
  0.00000000E+00  0.00000000E+00  0.00000000E+00
  0.00000000E+00  0.00000000E+00  0.00000000E+00
  0.00000000E+00  0.00000000E+00  0.00000000E+00
  0.00000000E+00  0.00000000E+00  0.00000000E+00
  0.00000000E+00  0.00000000E+00  0.00000000E+00
  0.00000000E+00  0.00000000E+00  0.00000000E+00
  0.00000000E+00  0.00000000E+00  0.00000000E+00
  0.00000000E+00  0.00000000E+00  0.00000000E+00
  0.00000000E+00  0.00000000E+00  0.00000000E+00
  0.00000000E+00  0.00000000E+00  0.00000000E+00
  0.00000000E+00  0.00000000E+00  0.00000000E+00
  0.00000000E+00  0.00000000E+00  0.00000000E+00
  0.00000000E+00  0.00000000E+00  0.00000000E+00
  0.00000000E+00  0.00000000E+00  0.00000000E+00
  0.00000000E+00  0.00000000E+00  0.00000000E+00
  0.00000000E+00  0.00000000E+00  0.00000000E+00
  0.00000000E+00  0.00000000E+00  0.00000000E+00
  0.00000000E+00  0.00000000E+00  0.00000000E+00
  0.00000000E+00  0.00000000E+00  0.00000000E+00
  0.00000000E+00  0.00000000E+00  0.00000000E+00
  0.00000000E+00  0.00000000E+00  0.00000000E+00
  0.00000000E+00  0.00000000E+00  0.00000000E+00
  0.00000000E+00  0.00000000E+00  0.00000000E+00
  0.00000000E+00  0.00000000E+00  0.00000000E+00
  0.00000000E+00  0.00000000E+00  0.00000000E+00
  0.00000000E+00  0.00000000E+00  0.00000000E+00
  0.00000000E+00  0.00000000E+00  0.00000000E+00
  0.00000000E+00  0.00000000E+00  0.00000000E+00
  0.00000000E+00  0.00000000E+00  0.00000000E+00
  0.00000000E+00  0.00000000E+00  0.00000000E+00
  0.00000000E+00  0.00000000E+00  0.00000000E+00
  0.00000000E+00  0.00000000E+00  0.00000000E+00
  0.00000000E+00  0.00000000E+00  0.00000000E+00
  0.00000000E+00  0.00000000E+00  0.00000000E+00
  0.00000000E+00  0.00000000E+00  0.00000000E+00
  0.00000000E+00  0.00000000E+00  0.00000000E+00
  0.00000000E+00  0.00000000E+00  0.00000000E+00
  0.00000000E+00  0.00000000E+00  0.00000000E+00
  0.00000000E+00  0.00000000E+00  0.00000000E+00
  0.00000000E+00  0.00000000E+00  0.00000000E+00
  0.00000000E+00  0.00000000E+00  0.00000000E+00
  0.00000000E+00  0.00000000E+00  0.00000000E+00
  0.00000000E+00  0.00000000E+00  0.00000000E+00
  0.00000000E+00  0.00000000E+00  0.00000000E+00
  0.00000000E+00  0.00000000E+00  0.00000000E+00
  0.00000000E+00  0.00000000E+00  0.00000000E+00
  0.00000000E+00  0.00000000E+00  0.00000000E+00
  0.00000000E+00  0.00000000E+00  0.00000000E+00
  0.00000000E+00  0.00000000E+00  0.00000000E+00
  0.00000000E+00  0.00000000E+00  0.00000000E+00
  0.00000000E+00  0.00000000E+00  0.00000000E+00
