CIF file                                
   1.00000000000000     
    11.3519997597000071    0.0000000000000000    0.0000000000000000
     0.0000000000000000   11.3519997597000071    0.0000000000000000
     0.0000000000000000    0.0000000000000000    9.6265001297000055
   Ti   O    Nb   N 
    35    71     1     1
Direct
  0.1770394556122799  0.0000032866901840  0.7453255479726156
  0.4999959226513376  0.0000044439500379  0.7526300985579990
  0.8229582927823871  0.0000019612922120  0.7453302342187176
  0.1658767900983424  0.3335480811944786  0.7504187878819624
  0.4999903253076864  0.3308487765957647  0.7569526850558702
  0.8341026642814073  0.3335482937752736  0.7504205185056358
  0.1658712232503706  0.6664556094249245  0.7504347425191887
  0.4999826075434831  0.6691526418238822  0.7569640052851067
  0.8340988763252946  0.6664526558332321  0.7504331578958744
  1.0000060800385349  0.1692622731602055  0.2510444183889692
  0.3335784190878676  0.1669826758002367  0.2510511476380143
  0.6664470358825246  0.1669642315827297  0.2510475432390407
 -0.0000000372981179  0.4999988621294337  0.2490039181066684
  0.3270681934559603  0.5000016797283753  0.2404747315125161
  0.6729328414619477  0.4999929850528638  0.2404745641521952
  0.0000059882761417  0.8307439836035352  0.2510506883470189
  0.3335744773122259  0.8330389322087146  0.2510667612331615
  0.6664467341957944  0.8330177395425683  0.2510581927907918
 -0.0000000379778193  0.0000005813977828  0.0093124958041045
  0.3321555512582933  0.9999920546081315  0.0036843212375853
  0.6678403717991508  0.9999930108050042  0.0036821115812467
  0.9999932757569227  0.3332973280925967  0.9999983941561543
  0.3317193652724226  0.3319868412439875  0.9990679638764631
  0.6682657760464641  0.3319888854699953  0.9990693342884776
  0.9999874509462330  0.6667050896264775  1.0000143247425035
  0.3317154203846746  0.6680053712754253  0.9990855610756131
  0.6682591004803263  0.6680029694626355  0.9990759940349856
  0.1665596970073185  0.1671168713945230  0.4990415371720965
  0.5000121894835514  0.1642718673615736  0.5004148622493659
  0.8334580079988082  0.1671146550942074  0.4990490389589256
  0.1642923767766823  0.5000056966671947  0.5017974555842666
  0.8357105039144493  0.5000024880898817  0.5017978897836411
  0.1665585173041588  0.8328851990113360  0.4990506241788288
  0.5000154737218632  0.8357281429322221  0.5004269358241852
  0.8334600169836049  0.8328857219142241  0.4990601541269465
  0.9999997072971564  0.0000025689623923  0.7774796301062507
  0.3352551189002436  0.9999994878485737  0.7950123309818561
  0.6647400510990810 -0.0000002598435828  0.7950091772202164
  0.9999949669100237  0.3341917986915674  0.7940724602281738
  0.3329210546825105  0.3312602400615300  0.7942980594951661
  0.6670680013396482  0.3312630869037896  0.7942959728052312
  0.9999920545900688  0.6658063835981262  0.7940860838624451
  0.3329176588689381  0.6687390208551635  0.7943086244607316
  0.6670659664704367  0.6687354555478542  0.7943061179740697
  0.1668043968959448  0.1673174359152005  0.2942597365997147
  0.5000097620155969  0.1664834349349636  0.2949323211539457
  0.8332077458629432  0.1673128290931466  0.2942605645487005
  0.1636649004848486  0.4999987086941002  0.2964370513268457
  0.8363369872218395  0.4999975151338639  0.2964373021629897
  0.1668043001201965  0.8326837895930602  0.2942681101832811
  0.5000097119386286  0.8335085264195816  0.2949478326654716
  0.8332083442067062  0.8326869904282813  0.2942696800881144
  0.9999959760031525  0.1665869053686951  0.0439372343819076
  0.3317477138723258  0.1660613028956006  0.0448529952854998
  0.6682481844920639  0.1660608583238717  0.0448494789915315
  0.9999948270431548  0.5000005252732963  0.0448024623857179
  0.3281524298659691  0.4999976130201996  0.0380679542188462
  0.6718340580470578  0.4999985468695759  0.0380660010530941
  0.9999957209125301  0.8334145509832106  0.0439461638665615
  0.3317483171594988  0.8339359236346056  0.0448625747643596
  0.6682464148470315  0.8339329558922829  0.0448586612575432
  0.1709161403665700  0.0000004058890648  0.5411945602265665
  0.5000089377199627  0.9999999364364277  0.5446556278466365
  0.8290979504630729  0.0000000482068870  0.5411988015889621
  0.1678284426044572  0.3332258414992176  0.5453057782302470
  0.5000191467937193  0.3331641017441201  0.5468980899239777
  0.8321763891792276  0.3332245395746454  0.5453064585910593
  0.1678287298725623  0.6667782153671807  0.5453165784849520
  0.5000182396658872  0.6668365948455427  0.5469129913499509
  0.8321750369253205  0.6667765219298618  0.5453170771425241
  0.1640095504933687  0.9999989840627395  0.9508751603904201
  0.4999985347569893  0.9999978136366091  0.9578079526727272
  0.8359879350904040 -0.0000013874318732  0.9508752064187432
  0.1660502761822461  0.3320338107572979  0.9562642982865330
  0.4999950615030916  0.3323253749737069  0.9581195828499205
  0.8339392679155856  0.3320392317206205  0.9562626589836364
  0.1660477883475993  0.6679704262954588  0.9562788972366990
  0.4999922756568634  0.6676717733025703  0.9581296711192303
  0.8339365073151189  0.6679648345455821  0.9562774177849795
  0.0000045110958920  0.1665209160220057  0.4559572312907640
  0.3338121869420515  0.1677980521960773  0.4567885332818597
  0.6662034595545741  0.1677928284432310  0.4567878203823491
  0.0000007740946104  0.5000027859427139  0.4602188122583765
  0.3324999913312860  0.5000005958120635  0.4524761614520298
  0.6675040852708395  0.5000005557796531  0.4524748232867618
  0.0000056509602133  0.8334803911004809  0.4559646976141220
  0.3338118717245863  0.8322019773880591  0.4567989024546513
  0.6662049702793821  0.8322026390937639  0.4567973993304263
  0.1624122835440324  0.1654346221698042  0.7068752388360799
  0.4999881133278281  0.1659838094272752  0.7069268187602974
  0.8375787990350848  0.1654336168985945  0.7068823789839136
  0.1671812135732250  0.5000018158329174  0.7075738468402383
  0.4999900624076152  0.4999996819846720  0.7134130986187767
  0.8328079981123629  0.5000005637899924  0.7075731614546824
  0.1624082257228180  0.8345695912885389  0.7068892105766729
  0.4999888388876814  0.8340178082275064  0.7069398709457683
  0.8375823319359261  0.8345669859471534  0.7068909962391443
  0.0000080368201889  0.0000016575552675  0.2065331912946225
  0.3331055431377375  1.0000005725287779  0.2071156833228270
  0.6669139318246997  0.9999948903951152  0.2071095643631216
  0.0000019497089822  0.3332112259134810  0.2062527904601823
  0.3350305493800315  0.3334546179803148  0.2055557325155142
  0.6649772570936429  0.3334523047142596  0.2055539235908933
  0.0000007623387526  0.6667889847520331  0.2062661679796556
  0.3350293175836782  0.6665443944768900  0.2055645784037453
  0.6649775284196374  0.6665418932464200  0.2055632493484000
  0.5000000988724320  0.5000016054057547  0.5000544816221486
  0.5000001275975305  0.5000134653969133  0.2774695013190248
 
  0.00000000E+00  0.00000000E+00  0.00000000E+00
  0.00000000E+00  0.00000000E+00  0.00000000E+00
  0.00000000E+00  0.00000000E+00  0.00000000E+00
  0.00000000E+00  0.00000000E+00  0.00000000E+00
  0.00000000E+00  0.00000000E+00  0.00000000E+00
  0.00000000E+00  0.00000000E+00  0.00000000E+00
  0.00000000E+00  0.00000000E+00  0.00000000E+00
  0.00000000E+00  0.00000000E+00  0.00000000E+00
  0.00000000E+00  0.00000000E+00  0.00000000E+00
  0.00000000E+00  0.00000000E+00  0.00000000E+00
  0.00000000E+00  0.00000000E+00  0.00000000E+00
  0.00000000E+00  0.00000000E+00  0.00000000E+00
  0.00000000E+00  0.00000000E+00  0.00000000E+00
  0.00000000E+00  0.00000000E+00  0.00000000E+00
  0.00000000E+00  0.00000000E+00  0.00000000E+00
  0.00000000E+00  0.00000000E+00  0.00000000E+00
  0.00000000E+00  0.00000000E+00  0.00000000E+00
  0.00000000E+00  0.00000000E+00  0.00000000E+00
  0.00000000E+00  0.00000000E+00  0.00000000E+00
  0.00000000E+00  0.00000000E+00  0.00000000E+00
  0.00000000E+00  0.00000000E+00  0.00000000E+00
  0.00000000E+00  0.00000000E+00  0.00000000E+00
  0.00000000E+00  0.00000000E+00  0.00000000E+00
  0.00000000E+00  0.00000000E+00  0.00000000E+00
  0.00000000E+00  0.00000000E+00  0.00000000E+00
  0.00000000E+00  0.00000000E+00  0.00000000E+00
  0.00000000E+00  0.00000000E+00  0.00000000E+00
  0.00000000E+00  0.00000000E+00  0.00000000E+00
  0.00000000E+00  0.00000000E+00  0.00000000E+00
  0.00000000E+00  0.00000000E+00  0.00000000E+00
  0.00000000E+00  0.00000000E+00  0.00000000E+00
  0.00000000E+00  0.00000000E+00  0.00000000E+00
  0.00000000E+00  0.00000000E+00  0.00000000E+00
  0.00000000E+00  0.00000000E+00  0.00000000E+00
  0.00000000E+00  0.00000000E+00  0.00000000E+00
  0.00000000E+00  0.00000000E+00  0.00000000E+00
  0.00000000E+00  0.00000000E+00  0.00000000E+00
  0.00000000E+00  0.00000000E+00  0.00000000E+00
  0.00000000E+00  0.00000000E+00  0.00000000E+00
  0.00000000E+00  0.00000000E+00  0.00000000E+00
  0.00000000E+00  0.00000000E+00  0.00000000E+00
  0.00000000E+00  0.00000000E+00  0.00000000E+00
  0.00000000E+00  0.00000000E+00  0.00000000E+00
  0.00000000E+00  0.00000000E+00  0.00000000E+00
  0.00000000E+00  0.00000000E+00  0.00000000E+00
  0.00000000E+00  0.00000000E+00  0.00000000E+00
  0.00000000E+00  0.00000000E+00  0.00000000E+00
  0.00000000E+00  0.00000000E+00  0.00000000E+00
  0.00000000E+00  0.00000000E+00  0.00000000E+00
  0.00000000E+00  0.00000000E+00  0.00000000E+00
  0.00000000E+00  0.00000000E+00  0.00000000E+00
  0.00000000E+00  0.00000000E+00  0.00000000E+00
  0.00000000E+00  0.00000000E+00  0.00000000E+00
  0.00000000E+00  0.00000000E+00  0.00000000E+00
  0.00000000E+00  0.00000000E+00  0.00000000E+00
  0.00000000E+00  0.00000000E+00  0.00000000E+00
  0.00000000E+00  0.00000000E+00  0.00000000E+00
  0.00000000E+00  0.00000000E+00  0.00000000E+00
  0.00000000E+00  0.00000000E+00  0.00000000E+00
  0.00000000E+00  0.00000000E+00  0.00000000E+00
  0.00000000E+00  0.00000000E+00  0.00000000E+00
  0.00000000E+00  0.00000000E+00  0.00000000E+00
  0.00000000E+00  0.00000000E+00  0.00000000E+00
  0.00000000E+00  0.00000000E+00  0.00000000E+00
  0.00000000E+00  0.00000000E+00  0.00000000E+00
  0.00000000E+00  0.00000000E+00  0.00000000E+00
  0.00000000E+00  0.00000000E+00  0.00000000E+00
  0.00000000E+00  0.00000000E+00  0.00000000E+00
  0.00000000E+00  0.00000000E+00  0.00000000E+00
  0.00000000E+00  0.00000000E+00  0.00000000E+00
  0.00000000E+00  0.00000000E+00  0.00000000E+00
  0.00000000E+00  0.00000000E+00  0.00000000E+00
  0.00000000E+00  0.00000000E+00  0.00000000E+00
  0.00000000E+00  0.00000000E+00  0.00000000E+00
  0.00000000E+00  0.00000000E+00  0.00000000E+00
  0.00000000E+00  0.00000000E+00  0.00000000E+00
  0.00000000E+00  0.00000000E+00  0.00000000E+00
  0.00000000E+00  0.00000000E+00  0.00000000E+00
  0.00000000E+00  0.00000000E+00  0.00000000E+00
  0.00000000E+00  0.00000000E+00  0.00000000E+00
  0.00000000E+00  0.00000000E+00  0.00000000E+00
  0.00000000E+00  0.00000000E+00  0.00000000E+00
  0.00000000E+00  0.00000000E+00  0.00000000E+00
  0.00000000E+00  0.00000000E+00  0.00000000E+00
  0.00000000E+00  0.00000000E+00  0.00000000E+00
  0.00000000E+00  0.00000000E+00  0.00000000E+00
  0.00000000E+00  0.00000000E+00  0.00000000E+00
  0.00000000E+00  0.00000000E+00  0.00000000E+00
  0.00000000E+00  0.00000000E+00  0.00000000E+00
  0.00000000E+00  0.00000000E+00  0.00000000E+00
  0.00000000E+00  0.00000000E+00  0.00000000E+00
  0.00000000E+00  0.00000000E+00  0.00000000E+00
  0.00000000E+00  0.00000000E+00  0.00000000E+00
  0.00000000E+00  0.00000000E+00  0.00000000E+00
  0.00000000E+00  0.00000000E+00  0.00000000E+00
  0.00000000E+00  0.00000000E+00  0.00000000E+00
  0.00000000E+00  0.00000000E+00  0.00000000E+00
  0.00000000E+00  0.00000000E+00  0.00000000E+00
  0.00000000E+00  0.00000000E+00  0.00000000E+00
  0.00000000E+00  0.00000000E+00  0.00000000E+00
  0.00000000E+00  0.00000000E+00  0.00000000E+00
  0.00000000E+00  0.00000000E+00  0.00000000E+00
  0.00000000E+00  0.00000000E+00  0.00000000E+00
  0.00000000E+00  0.00000000E+00  0.00000000E+00
  0.00000000E+00  0.00000000E+00  0.00000000E+00
  0.00000000E+00  0.00000000E+00  0.00000000E+00
  0.00000000E+00  0.00000000E+00  0.00000000E+00
  0.00000000E+00  0.00000000E+00  0.00000000E+00
