CIF file                                
   1.00000000000000     
    11.3519997597000071    0.0000000000000000    0.0000000000000000
     0.0000000000000000   11.3519997597000071    0.0000000000000000
     0.0000000000000000    0.0000000000000000    9.6265001297000055
   Ti   O    Nb   N 
    35    71     1     1
Direct
  0.1662776552300325  0.0000107762419938  0.7498132530250536
  0.4999964475068941 -0.0000014131887976  0.7537699319828409
  0.8337290613895769  0.0000080041391388  0.7498208903237064
  0.1658797596005475  0.3329236651028441  0.7496590008237044
  0.4999795576735560  0.3306406913413196  0.7569979847344360
  0.8340736089652818  0.3329200183561697  0.7496365517883251
  0.1658756268109958  0.6670733189024727  0.7496678324588727
  0.4999769432850751  0.6693596690451404  0.7569918640646540
  0.8340728668087299  0.6670736965701135  0.7496392269785093
  0.0000115184005702  0.1664338838793011  0.2501891041319070
  0.3332281705562841  0.1659321952447321  0.2507153919886329
  0.6667713111406556  0.1659302310929234  0.2507102809408903
  0.0000302187331759  0.4999993643712720  0.2476223080335989
  0.3270279351721764  0.4999902107424375  0.2402289961173627
  0.6730098098187050  0.4999955965366502  0.2402013511505909
  0.0000150776156959  0.8335680381684010  0.2501878616549226
  0.3332250722309304  0.8340556285008959  0.2507313659366663
  0.6667750846743828  0.8340614357571307  0.2507226488100511
  1.0000097408962143  0.0000137459210014  0.0001554733028298
  0.3322416329979833  0.9999872482432511  0.9999039272632010
  0.6677672219138100  0.9999916593166212  0.9998860644444686
  0.9999736020117005  0.3323882077611781  0.0004298572527652
  0.3315675645554631  0.3316988353118928  0.9991634498729184
  0.6683985776043683  0.3316969375457487  0.9991581634023727
  0.9999701637542501  0.6676285665279974  0.0004389610349232
  0.3315639519928774  0.6682827790983530  0.9991753051282244
  0.6683960134470076  0.6682923214960025  0.9991639636496193
  0.1664842045748152  0.1664850254716192  0.5000965260460064
  0.5000214682550943  0.1637819674472151  0.5002662435947562
  0.8335635249965637  0.1664705466178764  0.5000871433729235
  0.1639648206347047  0.5000096864481834  0.5015722056455590
  0.8360516116217315  0.4999994898719725  0.5015368827181282
  0.1664740967330639  0.8335344021021658  0.5001165682875071
  0.5000160567604894  0.8361990231246932  0.5002719235792731
  0.8335652031235117  0.8335357015111569  0.5000905187878660
  0.9999951359285972  0.0000935934734397  0.7939999425466110
  0.3331686892329097  1.0000008514859793  0.7946542307005028
  0.6668199526580841  1.0000022897675189  0.7946586660612251
  0.9999816899444521  0.3335382031530075  0.7934463940669224
  0.3331629680447500  0.3322428003602155  0.7944830631192407
  0.6668108770777298  0.3322531802910528  0.7944708697910214
  0.9999831166617471  0.6664296828013734  0.7934640801552679
  0.3331545371877570  0.6677625126878198  0.7944957700586103
  0.6668120662299537  0.6677577902502604  0.7944787674796707
  0.1669947305849634  0.1670184330036134  0.2942060480652908
  0.5000038523398836  0.1668881366791216  0.2952015681054303
  0.8330273790552092  0.1669753257660541  0.2941919442797876
  0.1637702769305634  0.4999980151256750  0.2957379163012513
  0.8362601011950159  0.4999979360351255  0.2957122267197715
  0.1669925948100545  0.8329835440869885  0.2942173508857558
  0.5000022882662986  0.8330965381060029  0.2952145760463587
  0.8330287647805632  0.8330250950420283  0.2941983618122507
  0.9999718072127243  0.1663156759576717  0.0443061510120922
  0.3326627636132920  0.1662114302214839  0.0446032721184442
  0.6673243665178767  0.1662137693504774  0.0445880748792061
  0.9999977182725674  0.5000005902732632  0.0438658982134337
  0.3281719565112369  0.4999944989555803  0.0380990377802895
  0.6718029656607576  0.4999954986081421  0.0380896862745361
  0.9999695689141981  0.8336933746645214  0.0442984881945599
  0.3326643674450171  0.8337785574210863  0.0446183016765150
  0.6673196582746211  0.8337808332340767  0.0446092160709572
  0.1668985386957188  0.0000055344594480  0.5437618497346259
  0.5000060830770490  0.9999985460666962  0.5444688543513287
  0.8331236045495026  0.0000039739662672  0.5437662317022959
  0.1672963282010278  0.3334924036963371  0.5443127333540451
  0.5000024643528461  0.3330889290397759  0.5465785917925774
  0.8327366533161018  0.3334885661684296  0.5442817180822650
  0.1673025604680709  0.6665199177806285  0.5443274408399724
  0.5000003152492076  0.6668942155172466  0.5465939566521063
  0.8327329295932412  0.6665196357430282  0.5442970079678607
  0.1664894817540626  0.9999903061845106  0.9559088985719068
  0.4999919923191785  0.9999971102846663  0.9566897231412472
  0.8335055049552640  0.9999925445525746  0.9559205000458502
  0.1660595197191141  0.3318664800773531  0.9558835136266026
  0.4999913189560619  0.3325143830138426  0.9581770015360056
  0.8339097766900834  0.3318777658718002  0.9558655155672785
  0.1660574476111995  0.6681349415850611  0.9558963126275395
  0.4999895114715978  0.6674760087613256  0.9581854759113086
  0.8339077862589409  0.6681260320536905  0.9558776537056654
  0.0000133559425098  0.1668987982950653  0.4560094205060224
  0.3337553706381159  0.1670209697796816  0.4566128939451202
  0.6662636392610669  0.1670216841763710  0.4566023799386721
  0.0000153857654598  0.5000094065649010  0.4591301871663916
  0.3325386674011622  0.4999956480788067  0.4524009042320856
  0.6674827998486043  0.4999956386189037  0.4523827486234848
  0.0000120897808781  0.8331051842478829  0.4560094410535953
  0.3337490935332793  0.8329854130336934  0.4566278919818914
  0.6662657258776343  0.8329838416569264  0.4566137987913287
  0.1664751300737931  0.1665645100462422  0.7057570544706022
  0.4999881698030073  0.1662104409873220  0.7070147400468512
  0.8334945370054124  0.1665677434347515  0.7057437848730888
  0.1672752923593692  0.5000017762543305  0.7067531074761892
  0.4999818934208354  0.4999923503174444  0.7128742720294973
  0.8327062143275568  0.4999997237762432  0.7067261952108957
  0.1664309502268298  0.8334495474684458  0.7057793364153262
  0.4999901457820181  0.8337909527651842  0.7070330887068196
  0.8335389421697215  0.8334512600543195  0.7057648726222765
  0.0000927469898891  0.0000009007447521  0.2064208130242027
  0.3338248084776611  0.9999966831649256  0.2068977306292031
  0.6661716436754697  0.9999983634382157  0.2068869759339229
  0.0000119384356276  0.3329643869963015  0.2054810178517321
  0.3349002745819487  0.3334034294830961  0.2055014387609260
  0.6651273271772611  0.3334004799524299  0.2054997040307051
  0.0000110104351554  0.6670389552001422  0.2054846539278682
  0.3348899118782510  0.6665860521649002  0.2055137172724053
  0.6651273852806858  0.6665918716533923  0.2055060032501779
  0.5000092404628674  0.4999809876133129  0.5000346147297418
  0.5000151173116862  0.4999863937869136  0.2774153085454367
 
  0.00000000E+00  0.00000000E+00  0.00000000E+00
  0.00000000E+00  0.00000000E+00  0.00000000E+00
  0.00000000E+00  0.00000000E+00  0.00000000E+00
  0.00000000E+00  0.00000000E+00  0.00000000E+00
  0.00000000E+00  0.00000000E+00  0.00000000E+00
  0.00000000E+00  0.00000000E+00  0.00000000E+00
  0.00000000E+00  0.00000000E+00  0.00000000E+00
  0.00000000E+00  0.00000000E+00  0.00000000E+00
  0.00000000E+00  0.00000000E+00  0.00000000E+00
  0.00000000E+00  0.00000000E+00  0.00000000E+00
  0.00000000E+00  0.00000000E+00  0.00000000E+00
  0.00000000E+00  0.00000000E+00  0.00000000E+00
  0.00000000E+00  0.00000000E+00  0.00000000E+00
  0.00000000E+00  0.00000000E+00  0.00000000E+00
  0.00000000E+00  0.00000000E+00  0.00000000E+00
  0.00000000E+00  0.00000000E+00  0.00000000E+00
  0.00000000E+00  0.00000000E+00  0.00000000E+00
  0.00000000E+00  0.00000000E+00  0.00000000E+00
  0.00000000E+00  0.00000000E+00  0.00000000E+00
  0.00000000E+00  0.00000000E+00  0.00000000E+00
  0.00000000E+00  0.00000000E+00  0.00000000E+00
  0.00000000E+00  0.00000000E+00  0.00000000E+00
  0.00000000E+00  0.00000000E+00  0.00000000E+00
  0.00000000E+00  0.00000000E+00  0.00000000E+00
  0.00000000E+00  0.00000000E+00  0.00000000E+00
  0.00000000E+00  0.00000000E+00  0.00000000E+00
  0.00000000E+00  0.00000000E+00  0.00000000E+00
  0.00000000E+00  0.00000000E+00  0.00000000E+00
  0.00000000E+00  0.00000000E+00  0.00000000E+00
  0.00000000E+00  0.00000000E+00  0.00000000E+00
  0.00000000E+00  0.00000000E+00  0.00000000E+00
  0.00000000E+00  0.00000000E+00  0.00000000E+00
  0.00000000E+00  0.00000000E+00  0.00000000E+00
  0.00000000E+00  0.00000000E+00  0.00000000E+00
  0.00000000E+00  0.00000000E+00  0.00000000E+00
  0.00000000E+00  0.00000000E+00  0.00000000E+00
  0.00000000E+00  0.00000000E+00  0.00000000E+00
  0.00000000E+00  0.00000000E+00  0.00000000E+00
  0.00000000E+00  0.00000000E+00  0.00000000E+00
  0.00000000E+00  0.00000000E+00  0.00000000E+00
  0.00000000E+00  0.00000000E+00  0.00000000E+00
  0.00000000E+00  0.00000000E+00  0.00000000E+00
  0.00000000E+00  0.00000000E+00  0.00000000E+00
  0.00000000E+00  0.00000000E+00  0.00000000E+00
  0.00000000E+00  0.00000000E+00  0.00000000E+00
  0.00000000E+00  0.00000000E+00  0.00000000E+00
  0.00000000E+00  0.00000000E+00  0.00000000E+00
  0.00000000E+00  0.00000000E+00  0.00000000E+00
  0.00000000E+00  0.00000000E+00  0.00000000E+00
  0.00000000E+00  0.00000000E+00  0.00000000E+00
  0.00000000E+00  0.00000000E+00  0.00000000E+00
  0.00000000E+00  0.00000000E+00  0.00000000E+00
  0.00000000E+00  0.00000000E+00  0.00000000E+00
  0.00000000E+00  0.00000000E+00  0.00000000E+00
  0.00000000E+00  0.00000000E+00  0.00000000E+00
  0.00000000E+00  0.00000000E+00  0.00000000E+00
  0.00000000E+00  0.00000000E+00  0.00000000E+00
  0.00000000E+00  0.00000000E+00  0.00000000E+00
  0.00000000E+00  0.00000000E+00  0.00000000E+00
  0.00000000E+00  0.00000000E+00  0.00000000E+00
  0.00000000E+00  0.00000000E+00  0.00000000E+00
  0.00000000E+00  0.00000000E+00  0.00000000E+00
  0.00000000E+00  0.00000000E+00  0.00000000E+00
  0.00000000E+00  0.00000000E+00  0.00000000E+00
  0.00000000E+00  0.00000000E+00  0.00000000E+00
  0.00000000E+00  0.00000000E+00  0.00000000E+00
  0.00000000E+00  0.00000000E+00  0.00000000E+00
  0.00000000E+00  0.00000000E+00  0.00000000E+00
  0.00000000E+00  0.00000000E+00  0.00000000E+00
  0.00000000E+00  0.00000000E+00  0.00000000E+00
  0.00000000E+00  0.00000000E+00  0.00000000E+00
  0.00000000E+00  0.00000000E+00  0.00000000E+00
  0.00000000E+00  0.00000000E+00  0.00000000E+00
  0.00000000E+00  0.00000000E+00  0.00000000E+00
  0.00000000E+00  0.00000000E+00  0.00000000E+00
  0.00000000E+00  0.00000000E+00  0.00000000E+00
  0.00000000E+00  0.00000000E+00  0.00000000E+00
  0.00000000E+00  0.00000000E+00  0.00000000E+00
  0.00000000E+00  0.00000000E+00  0.00000000E+00
  0.00000000E+00  0.00000000E+00  0.00000000E+00
  0.00000000E+00  0.00000000E+00  0.00000000E+00
  0.00000000E+00  0.00000000E+00  0.00000000E+00
  0.00000000E+00  0.00000000E+00  0.00000000E+00
  0.00000000E+00  0.00000000E+00  0.00000000E+00
  0.00000000E+00  0.00000000E+00  0.00000000E+00
  0.00000000E+00  0.00000000E+00  0.00000000E+00
  0.00000000E+00  0.00000000E+00  0.00000000E+00
  0.00000000E+00  0.00000000E+00  0.00000000E+00
  0.00000000E+00  0.00000000E+00  0.00000000E+00
  0.00000000E+00  0.00000000E+00  0.00000000E+00
  0.00000000E+00  0.00000000E+00  0.00000000E+00
  0.00000000E+00  0.00000000E+00  0.00000000E+00
  0.00000000E+00  0.00000000E+00  0.00000000E+00
  0.00000000E+00  0.00000000E+00  0.00000000E+00
  0.00000000E+00  0.00000000E+00  0.00000000E+00
  0.00000000E+00  0.00000000E+00  0.00000000E+00
  0.00000000E+00  0.00000000E+00  0.00000000E+00
  0.00000000E+00  0.00000000E+00  0.00000000E+00
  0.00000000E+00  0.00000000E+00  0.00000000E+00
  0.00000000E+00  0.00000000E+00  0.00000000E+00
  0.00000000E+00  0.00000000E+00  0.00000000E+00
  0.00000000E+00  0.00000000E+00  0.00000000E+00
  0.00000000E+00  0.00000000E+00  0.00000000E+00
  0.00000000E+00  0.00000000E+00  0.00000000E+00
  0.00000000E+00  0.00000000E+00  0.00000000E+00
  0.00000000E+00  0.00000000E+00  0.00000000E+00
  0.00000000E+00  0.00000000E+00  0.00000000E+00
  0.00000000E+00  0.00000000E+00  0.00000000E+00
