CIF file                                
   1.00000000000000     
    11.3519997597000071    0.0000000000000000    0.0000000000000000
     0.0000000000000000   11.3519997597000071    0.0000000000000000
     0.0000000000000000    0.0000000000000000    9.6265001297000055
   Ti   O    Nb   N 
    35    71     1     1
Direct
  0.1665123193666839  0.0000087072231778  0.7496296729202802
  0.4999799073180758  0.0000015548075196  0.7514161097770674
  0.8334483815391898  0.0000098450280734  0.7496316315233966
  0.1663527948735992  0.3333555197258637  0.7496937598440879
  0.4999759377056811  0.3338403304627116  0.7549580328623835
  0.8335966641497794  0.3333516926562066  0.7496573377296790
  0.1663517691015715  0.6666487821991985  0.7497297548980956
  0.4999754600919283  0.6661451036695577  0.7549717679069339
  0.8335912873367916  0.6666455632929518  0.7496798731039674
  0.0000221108480425  0.1664048721496571  0.2504645051809359
  0.3332589565459652  0.1664378847449022  0.2501654171655161
  0.6667587355514675  0.1664339960672952  0.2501525258351747
  0.0000388769232887  0.4999996022935717  0.2479482855932468
  0.3336431213497122  0.4999944329465277  0.2448724996813569
  0.6664334512897788  0.4999919303768447  0.2448698145686789
  0.0000188527838450  0.8335968447310002  0.2504710713913070
  0.3332650011135608  0.8335648907859575  0.2502129318809859
  0.6667545676085609  0.8335689944677083  0.2501837155989950
  0.9999597761191449  0.0000096224396167  0.9998962281437428
  0.3328395756607264  0.9999827110216460  0.9997820492274154
  0.6670730780490221  0.9999901644828856  0.9997617659387364
  0.9999769633973952  0.3326168145904406  0.0001125008299649
  0.3321631580136009  0.3324169845543443  0.9999821681600556
  0.6678242470277811  0.3324196763040190  0.9999725053402063
  0.9999685957543072  0.6673971864036947  0.0001263325061984
  0.3321680651276644  0.6675785116004783  0.0000136457947640
  0.6678160312328124  0.6675772230863560  1.0000028086703925
  0.1666879407665985  0.1665457828466135  0.4999375546579767
  0.5000124493419096  0.1649986129854890  0.5004697595072439
  0.8333488228191119  0.1665334277064957  0.4999113324904124
  0.1636230527331373  0.5000138040062920  0.5000854331520708
  0.8364820506379691  0.5000100134836392  0.5000587258196506
  0.1666793528108392  0.8334678363272605  0.4999609971698449
  0.5000230294765885  0.8349774056576216  0.5005143243783435
  0.8333551710699354  0.8334823222079628  0.4999411522037300
  0.9999734026526650  0.0000969742695882  0.7937090308308059
  0.3331260422462547  0.9999955973513280  0.7940020606679188
  0.6668304683080571  0.9999883072179898  0.7939917125990531
  0.9999804510041264  0.3330421469465650  0.7935600418109439
  0.3329652969594056  0.3322725161695093  0.7943862587653838
  0.6670085157830553  0.3322826103123890  0.7943710649025276
  0.9999767029932973  0.6669396895459034  0.7935902771783805
  0.3329621080080362  0.6677420678505728  0.7944144718450522
  0.6670069945405421  0.6677325161076020  0.7943880377564579
  0.1666244355194346  0.1660213731765398  0.2940991837167015
  0.5000079282887503  0.1675564530063809  0.2939301475437314
  0.8334051730161381  0.1659519706991979  0.2940772285124588
  0.1643691550446537  0.4999944292420475  0.2953312438432431
  0.8356820253015012  0.4999944707683618  0.2953328068626110
  0.1666239398375897  0.8339819695180286  0.2941215252713298
  0.5000101525916757  0.8324357814381793  0.2939770190579898
  0.8334008609132677  0.8340553834296529  0.2941007861828414
  0.9999591905467250  0.1662971279759989  0.0438533530388542
  0.3331432581415090  0.1660179418170641  0.0435800920257947
  0.6668208270268688  0.1660257220135873  0.0435605239343360
  0.9999893986044681  0.5000017200634962  0.0433321990321170
  0.3315434389246412  0.4999983366518478  0.0404922584654747
  0.6684240062177850  0.4999966859304210  0.0405022940836606
  0.9999425558113356  0.8337086930151326  0.0438597044273350
  0.3331682358444438  0.8339661008507784  0.0436189466087446
  0.6668064985507445  0.8339638106498903  0.0435892740848650
  0.1669556553407024  0.0000012169003208  0.5437119782530487
  0.5000149032209836  0.9999962918432547  0.5435379301021700
  0.8330616818404092  0.0000040059878842  0.5437107628879911
  0.1663410449229393  0.3334217092417020  0.5444862485320880
  0.5000076978586560  0.3330538714056732  0.5470137718066698
  0.8336953731669478  0.3334146589489153  0.5444538519548189
  0.1663515046936844  0.6665899287503764  0.5445181209505593
  0.5000087325303482  0.6669328655935400  0.5470338170568829
  0.8336815712841702  0.6665959279838177  0.5444792130787195
  0.1664865233069292  0.9999719946235968  0.9558736205726684
  0.4999741831863437  0.9999947107089110  0.9560141775712051
  0.8334638912472357  0.9999869446181969  0.9558762797852395
  0.1661143631502106  0.3325038503044273  0.9560060118177580
  0.4999902633074824  0.3322435221290569  0.9585554325339372
  0.8338563350235990  0.3325205274983807  0.9559852098797649
  0.1661159581833963  0.6675074060167029  0.9560397022363754
  0.4999894741208354  0.6677250930809451  0.9585732938552136
  0.8338460623562812  0.6674758583052069  0.9560082175972995
  0.0000115306656805  0.1666780127846993  0.4562271476989023
  0.3335272731052712  0.1671215693694587  0.4561944403605004
  0.6664936120475028  0.1671295439513857  0.4561725608506067
  0.0000331430800473  0.5000163565340039  0.4580565369529090
  0.3294526811559637  0.5000033886229909  0.4571679010611125
  0.6706083932510376  0.5000002346129835  0.4571836942487698
  0.0000091001231464  0.8333193866699758  0.4562354391701208
  0.3335257705382958  0.8328797812025128  0.4562345777414961
  0.6664969370996632  0.8328696222685533  0.4562108650737742
  0.1665880744806006  0.1664606194135048  0.7060607929815077
  0.4999873592857525  0.1663186472772978  0.7064394108521255
  0.8333732440723983  0.1664608124289679  0.7060466379973355
  0.1665767014396463  0.5000032673274007  0.7075139218296116
  0.4999784009783198  0.4999965482009883  0.7155976100813322
  0.8334066140735930  0.5000019548658740  0.7074798630108964
  0.1665102489757296  0.8335471606351057  0.7060923190717280
  0.4999847715023233  0.8336766266760274  0.7064644082068126
  0.8334229786042534  0.8335522813452353  0.7060756535475829
  0.0001077062610409  0.0000016207259011  0.2059741070884752
  0.3336355396879921  0.9999954800760736  0.2063369167769711
  0.6663426794784753  0.9999968360028092  0.2063009474387403
  0.0000058149855647  0.3329034201389486  0.2053597449102213
  0.3307485328635603  0.3325958970249262  0.2045811513645693
  0.6693199563088384  0.3325928792760845  0.2045779808837052
  0.0000051201683225  0.6670985627100158  0.2053783663734325
  0.3307500154311663  0.6673937967470317  0.2046234244697172
  0.6693143135508429  0.6673986198254266  0.2046087103313385
  0.5000612374961353  0.4999853392022586  0.4888421451129372
  0.5000364123344159  0.4999823067912427  0.2870755495389521
 
  0.00000000E+00  0.00000000E+00  0.00000000E+00
  0.00000000E+00  0.00000000E+00  0.00000000E+00
  0.00000000E+00  0.00000000E+00  0.00000000E+00
  0.00000000E+00  0.00000000E+00  0.00000000E+00
  0.00000000E+00  0.00000000E+00  0.00000000E+00
  0.00000000E+00  0.00000000E+00  0.00000000E+00
  0.00000000E+00  0.00000000E+00  0.00000000E+00
  0.00000000E+00  0.00000000E+00  0.00000000E+00
  0.00000000E+00  0.00000000E+00  0.00000000E+00
  0.00000000E+00  0.00000000E+00  0.00000000E+00
  0.00000000E+00  0.00000000E+00  0.00000000E+00
  0.00000000E+00  0.00000000E+00  0.00000000E+00
  0.00000000E+00  0.00000000E+00  0.00000000E+00
  0.00000000E+00  0.00000000E+00  0.00000000E+00
  0.00000000E+00  0.00000000E+00  0.00000000E+00
  0.00000000E+00  0.00000000E+00  0.00000000E+00
  0.00000000E+00  0.00000000E+00  0.00000000E+00
  0.00000000E+00  0.00000000E+00  0.00000000E+00
  0.00000000E+00  0.00000000E+00  0.00000000E+00
  0.00000000E+00  0.00000000E+00  0.00000000E+00
  0.00000000E+00  0.00000000E+00  0.00000000E+00
  0.00000000E+00  0.00000000E+00  0.00000000E+00
  0.00000000E+00  0.00000000E+00  0.00000000E+00
  0.00000000E+00  0.00000000E+00  0.00000000E+00
  0.00000000E+00  0.00000000E+00  0.00000000E+00
  0.00000000E+00  0.00000000E+00  0.00000000E+00
  0.00000000E+00  0.00000000E+00  0.00000000E+00
  0.00000000E+00  0.00000000E+00  0.00000000E+00
  0.00000000E+00  0.00000000E+00  0.00000000E+00
  0.00000000E+00  0.00000000E+00  0.00000000E+00
  0.00000000E+00  0.00000000E+00  0.00000000E+00
  0.00000000E+00  0.00000000E+00  0.00000000E+00
  0.00000000E+00  0.00000000E+00  0.00000000E+00
  0.00000000E+00  0.00000000E+00  0.00000000E+00
  0.00000000E+00  0.00000000E+00  0.00000000E+00
  0.00000000E+00  0.00000000E+00  0.00000000E+00
  0.00000000E+00  0.00000000E+00  0.00000000E+00
  0.00000000E+00  0.00000000E+00  0.00000000E+00
  0.00000000E+00  0.00000000E+00  0.00000000E+00
  0.00000000E+00  0.00000000E+00  0.00000000E+00
  0.00000000E+00  0.00000000E+00  0.00000000E+00
  0.00000000E+00  0.00000000E+00  0.00000000E+00
  0.00000000E+00  0.00000000E+00  0.00000000E+00
  0.00000000E+00  0.00000000E+00  0.00000000E+00
  0.00000000E+00  0.00000000E+00  0.00000000E+00
  0.00000000E+00  0.00000000E+00  0.00000000E+00
  0.00000000E+00  0.00000000E+00  0.00000000E+00
  0.00000000E+00  0.00000000E+00  0.00000000E+00
  0.00000000E+00  0.00000000E+00  0.00000000E+00
  0.00000000E+00  0.00000000E+00  0.00000000E+00
  0.00000000E+00  0.00000000E+00  0.00000000E+00
  0.00000000E+00  0.00000000E+00  0.00000000E+00
  0.00000000E+00  0.00000000E+00  0.00000000E+00
  0.00000000E+00  0.00000000E+00  0.00000000E+00
  0.00000000E+00  0.00000000E+00  0.00000000E+00
  0.00000000E+00  0.00000000E+00  0.00000000E+00
  0.00000000E+00  0.00000000E+00  0.00000000E+00
  0.00000000E+00  0.00000000E+00  0.00000000E+00
  0.00000000E+00  0.00000000E+00  0.00000000E+00
  0.00000000E+00  0.00000000E+00  0.00000000E+00
  0.00000000E+00  0.00000000E+00  0.00000000E+00
  0.00000000E+00  0.00000000E+00  0.00000000E+00
  0.00000000E+00  0.00000000E+00  0.00000000E+00
  0.00000000E+00  0.00000000E+00  0.00000000E+00
  0.00000000E+00  0.00000000E+00  0.00000000E+00
  0.00000000E+00  0.00000000E+00  0.00000000E+00
  0.00000000E+00  0.00000000E+00  0.00000000E+00
  0.00000000E+00  0.00000000E+00  0.00000000E+00
  0.00000000E+00  0.00000000E+00  0.00000000E+00
  0.00000000E+00  0.00000000E+00  0.00000000E+00
  0.00000000E+00  0.00000000E+00  0.00000000E+00
  0.00000000E+00  0.00000000E+00  0.00000000E+00
  0.00000000E+00  0.00000000E+00  0.00000000E+00
  0.00000000E+00  0.00000000E+00  0.00000000E+00
  0.00000000E+00  0.00000000E+00  0.00000000E+00
  0.00000000E+00  0.00000000E+00  0.00000000E+00
  0.00000000E+00  0.00000000E+00  0.00000000E+00
  0.00000000E+00  0.00000000E+00  0.00000000E+00
  0.00000000E+00  0.00000000E+00  0.00000000E+00
  0.00000000E+00  0.00000000E+00  0.00000000E+00
  0.00000000E+00  0.00000000E+00  0.00000000E+00
  0.00000000E+00  0.00000000E+00  0.00000000E+00
  0.00000000E+00  0.00000000E+00  0.00000000E+00
  0.00000000E+00  0.00000000E+00  0.00000000E+00
  0.00000000E+00  0.00000000E+00  0.00000000E+00
  0.00000000E+00  0.00000000E+00  0.00000000E+00
  0.00000000E+00  0.00000000E+00  0.00000000E+00
  0.00000000E+00  0.00000000E+00  0.00000000E+00
  0.00000000E+00  0.00000000E+00  0.00000000E+00
  0.00000000E+00  0.00000000E+00  0.00000000E+00
  0.00000000E+00  0.00000000E+00  0.00000000E+00
  0.00000000E+00  0.00000000E+00  0.00000000E+00
  0.00000000E+00  0.00000000E+00  0.00000000E+00
  0.00000000E+00  0.00000000E+00  0.00000000E+00
  0.00000000E+00  0.00000000E+00  0.00000000E+00
  0.00000000E+00  0.00000000E+00  0.00000000E+00
  0.00000000E+00  0.00000000E+00  0.00000000E+00
  0.00000000E+00  0.00000000E+00  0.00000000E+00
  0.00000000E+00  0.00000000E+00  0.00000000E+00
  0.00000000E+00  0.00000000E+00  0.00000000E+00
  0.00000000E+00  0.00000000E+00  0.00000000E+00
  0.00000000E+00  0.00000000E+00  0.00000000E+00
  0.00000000E+00  0.00000000E+00  0.00000000E+00
  0.00000000E+00  0.00000000E+00  0.00000000E+00
  0.00000000E+00  0.00000000E+00  0.00000000E+00
  0.00000000E+00  0.00000000E+00  0.00000000E+00
  0.00000000E+00  0.00000000E+00  0.00000000E+00
  0.00000000E+00  0.00000000E+00  0.00000000E+00
