CIF file                                
   1.00000000000000     
    11.3519997597000071    0.0000000000000000    0.0000000000000000
     0.0000000000000000   11.3519997597000071    0.0000000000000000
     0.0000000000000000    0.0000000000000000    9.6265001297000055
   Ti   O    Nb   N 
    35    71     1     1
Direct
  0.1664908865980367  0.0000055349954586  0.7497292643926108
  0.4999562741244352  0.0000149581196130  0.7515927147997337
  0.8334588907482313  0.0000098673140714  0.7497458881390022
  0.1663414084364259  0.3334043948523900  0.7497782965534641
  0.4999952165770343  0.3339128044418069  0.7550735547364499
  0.8336109846988466  0.3334043392423172  0.7497372776313078
  0.1663348122586413  0.6666038600212141  0.7498173936074694
  0.4999903348958059  0.6660781700778406  0.7550908627847065
  0.8336038458164221  0.6665875865511653  0.7497601158521277
  0.0000192942729089  0.1664546083444662  0.2502420026236714
  0.3332468921530465  0.1664933514757566  0.2499077191864988
  0.6667794333286476  0.1664833167165043  0.2498838786463191
  0.0000477564861012  0.4999960995270157  0.2479845642361810
  0.3336479029021093  0.4999900340715744  0.2448809282011101
  0.6664458196373118  0.4999835112965243  0.2448740612810517
  0.0000125396144683  0.8335401617717160  0.2502463027744299
  0.3332603206849938  0.8334952312723901  0.2499632834754794
  0.6667765870992729  0.8335003470781802  0.2499247065115978
  0.9999664915373010  0.0000119609427020  0.9998668012123053
  0.3327937136269158  0.9999731066463861  0.9997062628722039
  0.6671142558984277  0.9999849963149134  0.9996618666096221
  0.9999661383348003  0.3326410755169780  0.0001322613808597
  0.3321350309033705  0.3324299620569298  0.9999391825919899
  0.6678425124440531  0.3324377625991710  0.9999408298858357
  0.9999503183963785  0.6673772807333420  0.0001453485987259
  0.3321249604423507  0.6675532879766712  0.9999751135050727
  0.6678297133658754  0.6675632906668657  0.9999699354547854
  0.1666588451496347  0.1666764917821803  0.5001299684798314
  0.5000295045711373  0.1651103270333678  0.5006108234283158
  0.8333881601480952  0.1666660414986705  0.5001243534219766
  0.1636036298051174  0.5000182301656755  0.4998942789745752
  0.8365298995539401  0.5000148703198853  0.4998683175634294
  0.1666470222357495  0.8333378110100244  0.5001394052588078
  0.5000288292837520  0.8348777565003203  0.5006721602724514
  0.8333903536268880  0.8333515590956531  0.5001416890123849
  0.9999740543016304  0.0001300878151022  0.7937647400763984
  0.3331163142529494  0.0000007211569292  0.7940973785516751
  0.6668283235798910  0.9999963067513354  0.7940779015660362
  0.9999775359917835  0.3329647549302029  0.7936535712601105
  0.3329736261549358  0.3321552216346745  0.7945173491957230
  0.6669952174053316  0.3321679220151243  0.7944919858126198
  0.9999708614618350  0.6670039699877063  0.7936990617557785
  0.3329625438295106  0.6678647215117250  0.7945537368895730
  0.6669915172478651  0.6678569893162816  0.7945107162617580
  0.1666467207177849  0.1659510318876623  0.2944783106805410
  0.5000157583397726  0.1676651132752711  0.2941601812315173
  0.8333854059735676  0.1658484086005811  0.2944548686380595
  0.1643152921526408  0.4999942919404027  0.2955142293686612
  0.8357520881051173  0.4999919866008437  0.2955267545172580
  0.1666447836317793  0.8340581455842638  0.2945013225626985
  0.5000175376513233  0.8323109950655545  0.2942203533532917
  0.8333797336193101  0.8341623515820878  0.2944778605767934
  0.9999404139034294  0.1662989169402353  0.0441005995281980
  0.3331351883738810  0.1660049636349673  0.0437851305187124
  0.6668122988368935  0.1660161674114841  0.0437529391710338
  0.9999826447593727  0.5000028477632791  0.0435561921852161
  0.3315322160753547  0.4999954992645508  0.0406126025337168
  0.6683996804233333  0.4999892593713742  0.0406211343056642
  0.9999101696131898  0.8337090248401373  0.0441131622553519
  0.3331757507115689  0.8339689244602797  0.0438406902368769
  0.6667921026124938  0.8339611815455756  0.0437905738351693
  0.1670806129307832  0.0000029163092002  0.5437819147195364
  0.5000245838038270  0.0000028316178410  0.5435198844978851
  0.8329475071738697  0.0000043759869825  0.5437948664555522
  0.1664089548333579  0.3332568268808093  0.5444298869787987
  0.5000216681117803  0.3328724944342658  0.5470540851023939
  0.8336486564699201  0.3332479512475967  0.5443952726601909
  0.1664291936379654  0.6667670323116298  0.5444753446175888
  0.5000195029834961  0.6671137834925536  0.5470739911712510
  0.8336213478288229  0.6667691404606895  0.5444239324671559
  0.1664720415120610  0.9999491540438061  0.9557294992185396
  0.4999670893760609  0.9999891495486939  0.9558596857206857
  0.8334703254934696  0.9999793355406176  0.9557361156306902
  0.1660940656009442  0.3323943002221677  0.9558151964678659
  0.4999871805240774  0.3321039620527432  0.9584355682515083
  0.8338562791037147  0.3324237580045291  0.9557780113921250
  0.1660895898530873  0.6676346990118346  0.9558620289905589
  0.4999835407797397  0.6678589455361630  0.9584543531516008
  0.8338417631977825  0.6675690073546978  0.9558072899613382
  0.0000131194017870  0.1667861124474108  0.4562105008591157
  0.3336500522867855  0.1673330105100401  0.4560466202211266
  0.6663854512058558  0.1673482371967572  0.4560213979731688
  0.0000461192186787  0.5000250140556892  0.4581535453503299
  0.3295201810768591  0.5000014165702280  0.4569999788903105
  0.6705597984470328  0.4999991805538632  0.4570358454156610
  0.0000078189408725  0.8332068837021036  0.4562136631402550
  0.3336445653765675  0.8326713589216155  0.4561006183991049
  0.6663876822178462  0.8326523606855054  0.4560671027887717
  0.1665773667760524  0.1664795698126043  0.7058031295574850
  0.4999816898088459  0.1662850242539486  0.7060729304891561
  0.8333667392507086  0.1664829672077684  0.7057936992098625
  0.1665739243254159  0.5000064069192990  0.7072526135080530
  0.4999709999197813  0.4999986935210533  0.7155718215364044
  0.8333993696121538  0.5000045903828522  0.7072101959251428
  0.1664788307249895  0.8335368197764544  0.7058383719080833
  0.4999734276495340  0.8337180577550023  0.7061034049062481
  0.8334539676340247  0.8335362311668219  0.7058290155066919
  0.0001409728347831  0.0000041077374268  0.2058835294578126
  0.3336285469133162  0.9999922829554180  0.2062526605308723
  0.6663350959422578  0.9999896966382047  0.2061853544236272
  0.0000062867982139  0.3327135321187127  0.2053896988988367
  0.3305481282729072  0.3324481498276439  0.2045256158185944
  0.6695476046130263  0.3324414720902928  0.2045245358444064
  0.0000000464135040  0.6672894469198818  0.2054148530609202
  0.3305333001025211  0.6675332966844817  0.2045780963419751
  0.6695485113925770  0.6675386257356515  0.2045554773419528
  0.5000631503634214  0.4999975722042529  0.4888366215183274
  0.5000469898816241  0.4999864246750889  0.2870774128976362
 
  0.00000000E+00  0.00000000E+00  0.00000000E+00
  0.00000000E+00  0.00000000E+00  0.00000000E+00
  0.00000000E+00  0.00000000E+00  0.00000000E+00
  0.00000000E+00  0.00000000E+00  0.00000000E+00
  0.00000000E+00  0.00000000E+00  0.00000000E+00
  0.00000000E+00  0.00000000E+00  0.00000000E+00
  0.00000000E+00  0.00000000E+00  0.00000000E+00
  0.00000000E+00  0.00000000E+00  0.00000000E+00
  0.00000000E+00  0.00000000E+00  0.00000000E+00
  0.00000000E+00  0.00000000E+00  0.00000000E+00
  0.00000000E+00  0.00000000E+00  0.00000000E+00
  0.00000000E+00  0.00000000E+00  0.00000000E+00
  0.00000000E+00  0.00000000E+00  0.00000000E+00
  0.00000000E+00  0.00000000E+00  0.00000000E+00
  0.00000000E+00  0.00000000E+00  0.00000000E+00
  0.00000000E+00  0.00000000E+00  0.00000000E+00
  0.00000000E+00  0.00000000E+00  0.00000000E+00
  0.00000000E+00  0.00000000E+00  0.00000000E+00
  0.00000000E+00  0.00000000E+00  0.00000000E+00
  0.00000000E+00  0.00000000E+00  0.00000000E+00
  0.00000000E+00  0.00000000E+00  0.00000000E+00
  0.00000000E+00  0.00000000E+00  0.00000000E+00
  0.00000000E+00  0.00000000E+00  0.00000000E+00
  0.00000000E+00  0.00000000E+00  0.00000000E+00
  0.00000000E+00  0.00000000E+00  0.00000000E+00
  0.00000000E+00  0.00000000E+00  0.00000000E+00
  0.00000000E+00  0.00000000E+00  0.00000000E+00
  0.00000000E+00  0.00000000E+00  0.00000000E+00
  0.00000000E+00  0.00000000E+00  0.00000000E+00
  0.00000000E+00  0.00000000E+00  0.00000000E+00
  0.00000000E+00  0.00000000E+00  0.00000000E+00
  0.00000000E+00  0.00000000E+00  0.00000000E+00
  0.00000000E+00  0.00000000E+00  0.00000000E+00
  0.00000000E+00  0.00000000E+00  0.00000000E+00
  0.00000000E+00  0.00000000E+00  0.00000000E+00
  0.00000000E+00  0.00000000E+00  0.00000000E+00
  0.00000000E+00  0.00000000E+00  0.00000000E+00
  0.00000000E+00  0.00000000E+00  0.00000000E+00
  0.00000000E+00  0.00000000E+00  0.00000000E+00
  0.00000000E+00  0.00000000E+00  0.00000000E+00
  0.00000000E+00  0.00000000E+00  0.00000000E+00
  0.00000000E+00  0.00000000E+00  0.00000000E+00
  0.00000000E+00  0.00000000E+00  0.00000000E+00
  0.00000000E+00  0.00000000E+00  0.00000000E+00
  0.00000000E+00  0.00000000E+00  0.00000000E+00
  0.00000000E+00  0.00000000E+00  0.00000000E+00
  0.00000000E+00  0.00000000E+00  0.00000000E+00
  0.00000000E+00  0.00000000E+00  0.00000000E+00
  0.00000000E+00  0.00000000E+00  0.00000000E+00
  0.00000000E+00  0.00000000E+00  0.00000000E+00
  0.00000000E+00  0.00000000E+00  0.00000000E+00
  0.00000000E+00  0.00000000E+00  0.00000000E+00
  0.00000000E+00  0.00000000E+00  0.00000000E+00
  0.00000000E+00  0.00000000E+00  0.00000000E+00
  0.00000000E+00  0.00000000E+00  0.00000000E+00
  0.00000000E+00  0.00000000E+00  0.00000000E+00
  0.00000000E+00  0.00000000E+00  0.00000000E+00
  0.00000000E+00  0.00000000E+00  0.00000000E+00
  0.00000000E+00  0.00000000E+00  0.00000000E+00
  0.00000000E+00  0.00000000E+00  0.00000000E+00
  0.00000000E+00  0.00000000E+00  0.00000000E+00
  0.00000000E+00  0.00000000E+00  0.00000000E+00
  0.00000000E+00  0.00000000E+00  0.00000000E+00
  0.00000000E+00  0.00000000E+00  0.00000000E+00
  0.00000000E+00  0.00000000E+00  0.00000000E+00
  0.00000000E+00  0.00000000E+00  0.00000000E+00
  0.00000000E+00  0.00000000E+00  0.00000000E+00
  0.00000000E+00  0.00000000E+00  0.00000000E+00
  0.00000000E+00  0.00000000E+00  0.00000000E+00
  0.00000000E+00  0.00000000E+00  0.00000000E+00
  0.00000000E+00  0.00000000E+00  0.00000000E+00
  0.00000000E+00  0.00000000E+00  0.00000000E+00
  0.00000000E+00  0.00000000E+00  0.00000000E+00
  0.00000000E+00  0.00000000E+00  0.00000000E+00
  0.00000000E+00  0.00000000E+00  0.00000000E+00
  0.00000000E+00  0.00000000E+00  0.00000000E+00
  0.00000000E+00  0.00000000E+00  0.00000000E+00
  0.00000000E+00  0.00000000E+00  0.00000000E+00
  0.00000000E+00  0.00000000E+00  0.00000000E+00
  0.00000000E+00  0.00000000E+00  0.00000000E+00
  0.00000000E+00  0.00000000E+00  0.00000000E+00
  0.00000000E+00  0.00000000E+00  0.00000000E+00
  0.00000000E+00  0.00000000E+00  0.00000000E+00
  0.00000000E+00  0.00000000E+00  0.00000000E+00
  0.00000000E+00  0.00000000E+00  0.00000000E+00
  0.00000000E+00  0.00000000E+00  0.00000000E+00
  0.00000000E+00  0.00000000E+00  0.00000000E+00
  0.00000000E+00  0.00000000E+00  0.00000000E+00
  0.00000000E+00  0.00000000E+00  0.00000000E+00
  0.00000000E+00  0.00000000E+00  0.00000000E+00
  0.00000000E+00  0.00000000E+00  0.00000000E+00
  0.00000000E+00  0.00000000E+00  0.00000000E+00
  0.00000000E+00  0.00000000E+00  0.00000000E+00
  0.00000000E+00  0.00000000E+00  0.00000000E+00
  0.00000000E+00  0.00000000E+00  0.00000000E+00
  0.00000000E+00  0.00000000E+00  0.00000000E+00
  0.00000000E+00  0.00000000E+00  0.00000000E+00
  0.00000000E+00  0.00000000E+00  0.00000000E+00
  0.00000000E+00  0.00000000E+00  0.00000000E+00
  0.00000000E+00  0.00000000E+00  0.00000000E+00
  0.00000000E+00  0.00000000E+00  0.00000000E+00
  0.00000000E+00  0.00000000E+00  0.00000000E+00
  0.00000000E+00  0.00000000E+00  0.00000000E+00
  0.00000000E+00  0.00000000E+00  0.00000000E+00
  0.00000000E+00  0.00000000E+00  0.00000000E+00
  0.00000000E+00  0.00000000E+00  0.00000000E+00
  0.00000000E+00  0.00000000E+00  0.00000000E+00
  0.00000000E+00  0.00000000E+00  0.00000000E+00
