CIF file                                
   1.00000000000000     
    11.3519997597000071    0.0000000000000000    0.0000000000000000
     0.0000000000000000   11.3519997597000071    0.0000000000000000
     0.0000000000000000    0.0000000000000000    9.6265001297000055
   Ti   O    N    Ta
    35    72     1     1
Direct
  0.1643912340046130  0.0103438297209087  0.7544943491353239
  0.4973574646353939  0.9993171454301296  0.7505910366429267
  0.8311860758176426  0.9991778172632015  0.7505440004076150
  0.1645207669750989  0.3333403338426053  0.7480120889262416
  0.4897604136687345  0.3333438265603478  0.7398458351651955
  0.8392786769129427  0.3333471267499344  0.7390973657901766
  0.1643923811964315  0.6563531104664125  0.7545808780156726
  0.4973527431670153  0.6673845626087920  0.7506205681017869
  0.8311825868789618  0.6675214103504978  0.7505904173219462
  0.9961183649091576  0.1652194724674057  0.2510197422784010
  0.3318123782400558  0.1652263690993025  0.2513504714815563
  0.6640935747460572  0.1595046481967121  0.2558955416268232
  0.9961188066862476  0.5014312436330890  0.2510521256799848
  0.3318030481849973  0.5014248610163609  0.2513808596979353
  0.6640883656380412  0.5070801394146176  0.2559640326193144
  0.9949622390935614  0.8333333869548405  0.2486217595589603
  0.3323483518669290  0.8333461039599916  0.2489863545050113
  0.6633414880648506  0.8333003842969909  0.2498643340767331
  0.9976968819687916  0.9998621751848512  0.0013050435770097
  0.3307987680687907  0.9999056382615223  0.0016462489681330
  0.6642065309145067  0.9979523201416848  0.9974049828804936
 -0.0001746945701255  0.3333337662963962  0.0028254448862460
  0.3290972347292563  0.3333361501722558  0.0032516884841230
  0.9976894782510232  0.6667914929681193  0.0013572457664103
  0.3308178426810318  0.6667623072101262  0.0017033167675497
  0.6642038882244780  0.6686118981431097  0.9974490728529581
  0.1637656081672109  0.1659849354480458  0.4972705117184660
  0.4954484960864625  0.1637361457253667  0.4997809215731277
  0.8321758402731636  0.1635346988694316  0.4997315263840448
  0.1637577038941467  0.5007360091326511  0.4973226998160203
  0.4954267598951228  0.5029552003921864  0.4998214646024535
  0.8321765209028751  0.5031698006428823  0.4997647636565576
  0.1636996020359461  0.8333336718739206  0.4913270347129594
  0.4971601537704016  0.8333435255253004  0.5001710621734429
  0.8303093572186567  0.8333399359841769  0.4996885495025954
  0.9990734613808132  0.9956510261437937  0.7930017613693120
  0.3300463721645746  0.9957197875627845  0.7932756582938145
  0.6644946913111119  0.0008259472322717  0.7936680286826621
  0.0000440754002044  0.3333252715983208  0.7929438805472363
  0.3293587182847463  0.3333387598146714  0.7937666113785851
  0.6645926782939603  0.3333320701214815  0.7857066051898526
  0.9990727860233221  0.6710489404589149  0.7930727097069695
  0.3300461825730276  0.6709764872495871  0.7933305794959252
  0.6644962140340368  0.6658482077135659  0.7936999709386064
  0.1640600274081662  0.1667042410452603  0.2948631958871322
  0.4945129918582572  0.1455189716472101  0.2988239069554997
  0.8334883537380894  0.1448674248489284  0.2985162691596711
  0.1640616804930232  0.4999932258475082  0.2948955318746632
  0.4945060549877542  0.5210795159199899  0.2988651189998338
  0.8334853541246194  0.5217684721669260  0.2985502530264192
  0.1639972123395523  0.8332801562374142  0.2953521741716769
  0.4969437073357186  0.8333773030192486  0.2931474502075727
  0.8305881102032761  0.8333382969159970  0.2923198624310886
  0.9967210669691680  0.1674156027752076  0.0455128487360099
  0.3328145095958810  0.1674014881743301  0.0458716384030466
  0.6660401793299988  0.1701680428983248  0.0465823991805359
  0.9967475078474792  0.4992467449594538  0.0455485361201909
  0.3328027610635829  0.4992607414931673  0.0459057952343847
  0.6660211436220865  0.4964527632111601  0.0466204670111766
  0.9969216845019090  0.8333271035578922  0.0424957861323156
  0.3325179838019529  0.8333377517303534  0.0429839392639456
  0.6650819934506867  0.8332939796845710  0.0388676305082517
  0.1639138935187499  0.9973174373924178  0.5492783745999683
  0.4988829007136137  0.9989523731971883  0.5456684057622208
  0.8297126902624484  0.9988180454409975  0.5454613122739318
  0.1641839814690633  0.3333532318559495  0.5444462252212318
  0.4945769250691869  0.3333413592322341  0.5394080092399632
  0.8338230491770405  0.3333448242228621  0.5387426887695496
  0.1639227040857131  0.6693734279989954  0.5493309607428087
  0.4988539096446764  0.6677296933356713  0.5456935839723160
  0.8297479108906879  0.6678668986090409  0.5455035027591234
  0.1645575731330861  0.0045343440144475  0.9584232328199600
  0.4977829951279366  0.0022713262646882  0.9561614663428303
  0.8313180629884898  0.0020852410392136  0.9559753680917171
  0.1645736277380294  0.3333318198717061  0.9580682275112560
  0.4960247330238819  0.3333313946762050  0.9497388087956691
  0.8338148142183774  0.3333463734232616  0.9483948017401528
  0.1645655448959345  0.6621493209490216  0.9584980868503326
  0.4977850713472687  0.6643721815827394  0.9561876027811678
  0.8313120330750423  0.6645388319445625  0.9560228595191638
  0.9983453325441252  0.1674749799176349  0.4580595165246409
  0.3297810269569612  0.1671489019886964  0.4585850195242127
  0.6642798415171079  0.1712433867895388  0.4559308257040424
  0.9983508761856238  0.4992132672059899  0.4580911780393327
  0.3297698795746444  0.4995385067331600  0.4586262758322295
  0.6642809436866299  0.4954549864864881  0.4560123674175580
  0.9967064825141990  0.8333413047250496  0.4562934340548194
  0.3311741550754367  0.8333615393006087  0.4570077163605676
  0.6640541127431098  0.8332998052701400  0.4531081242559148
  0.1648637898380996  0.1684432028825474  0.7065770401561241
  0.4961704797790643  0.1662399622426526  0.7061521398444620
  0.8330496731542764  0.1661744877497853  0.7058139899960115
  0.1648542670999153  0.4982516552135487  0.7066349724816025
  0.4961540100260089  0.5004461917322399  0.7062051989899384
  0.8330575640668993  0.5005119770833306  0.7058516913774973
  0.1652903522454450  0.8333419838855081  0.7229118170857670
  0.4987751949815649  0.8333416771560148  0.7069513903771549
  0.8303278797096191  0.8333416949919881  0.7067029434731316
  0.0020959511871927  0.9987241866352385  0.2045230237074146
  0.3253870196393742  0.9987579673056497  0.2048789914485169
  0.6619609848185382  0.9979301026670095  0.2020477022766995
  0.9899840216418025  0.3333290537815353  0.2088395940080379
  0.3370108192680496  0.3333288073016754  0.2093369146620391
  0.7299815970866719  0.3333183180594243  0.2196584120252018
  0.0020240233009886  0.6679341064894724  0.2045713847320230
  0.3254755783225375  0.6679134395379218  0.2049186971387190
  0.6619353772528047  0.6686766392030431  0.2021026953377239
  0.6122930812944959  0.3333004841507441  0.2253020548372296
  0.6649774954407821  0.3333088237630287  0.9847794222774666
 
  0.00000000E+00  0.00000000E+00  0.00000000E+00
  0.00000000E+00  0.00000000E+00  0.00000000E+00
  0.00000000E+00  0.00000000E+00  0.00000000E+00
  0.00000000E+00  0.00000000E+00  0.00000000E+00
  0.00000000E+00  0.00000000E+00  0.00000000E+00
  0.00000000E+00  0.00000000E+00  0.00000000E+00
  0.00000000E+00  0.00000000E+00  0.00000000E+00
  0.00000000E+00  0.00000000E+00  0.00000000E+00
  0.00000000E+00  0.00000000E+00  0.00000000E+00
  0.00000000E+00  0.00000000E+00  0.00000000E+00
  0.00000000E+00  0.00000000E+00  0.00000000E+00
  0.00000000E+00  0.00000000E+00  0.00000000E+00
  0.00000000E+00  0.00000000E+00  0.00000000E+00
  0.00000000E+00  0.00000000E+00  0.00000000E+00
  0.00000000E+00  0.00000000E+00  0.00000000E+00
  0.00000000E+00  0.00000000E+00  0.00000000E+00
  0.00000000E+00  0.00000000E+00  0.00000000E+00
  0.00000000E+00  0.00000000E+00  0.00000000E+00
  0.00000000E+00  0.00000000E+00  0.00000000E+00
  0.00000000E+00  0.00000000E+00  0.00000000E+00
  0.00000000E+00  0.00000000E+00  0.00000000E+00
  0.00000000E+00  0.00000000E+00  0.00000000E+00
  0.00000000E+00  0.00000000E+00  0.00000000E+00
  0.00000000E+00  0.00000000E+00  0.00000000E+00
  0.00000000E+00  0.00000000E+00  0.00000000E+00
  0.00000000E+00  0.00000000E+00  0.00000000E+00
  0.00000000E+00  0.00000000E+00  0.00000000E+00
  0.00000000E+00  0.00000000E+00  0.00000000E+00
  0.00000000E+00  0.00000000E+00  0.00000000E+00
  0.00000000E+00  0.00000000E+00  0.00000000E+00
  0.00000000E+00  0.00000000E+00  0.00000000E+00
  0.00000000E+00  0.00000000E+00  0.00000000E+00
  0.00000000E+00  0.00000000E+00  0.00000000E+00
  0.00000000E+00  0.00000000E+00  0.00000000E+00
  0.00000000E+00  0.00000000E+00  0.00000000E+00
  0.00000000E+00  0.00000000E+00  0.00000000E+00
  0.00000000E+00  0.00000000E+00  0.00000000E+00
  0.00000000E+00  0.00000000E+00  0.00000000E+00
  0.00000000E+00  0.00000000E+00  0.00000000E+00
  0.00000000E+00  0.00000000E+00  0.00000000E+00
  0.00000000E+00  0.00000000E+00  0.00000000E+00
  0.00000000E+00  0.00000000E+00  0.00000000E+00
  0.00000000E+00  0.00000000E+00  0.00000000E+00
  0.00000000E+00  0.00000000E+00  0.00000000E+00
  0.00000000E+00  0.00000000E+00  0.00000000E+00
  0.00000000E+00  0.00000000E+00  0.00000000E+00
  0.00000000E+00  0.00000000E+00  0.00000000E+00
  0.00000000E+00  0.00000000E+00  0.00000000E+00
  0.00000000E+00  0.00000000E+00  0.00000000E+00
  0.00000000E+00  0.00000000E+00  0.00000000E+00
  0.00000000E+00  0.00000000E+00  0.00000000E+00
  0.00000000E+00  0.00000000E+00  0.00000000E+00
  0.00000000E+00  0.00000000E+00  0.00000000E+00
  0.00000000E+00  0.00000000E+00  0.00000000E+00
  0.00000000E+00  0.00000000E+00  0.00000000E+00
  0.00000000E+00  0.00000000E+00  0.00000000E+00
  0.00000000E+00  0.00000000E+00  0.00000000E+00
  0.00000000E+00  0.00000000E+00  0.00000000E+00
  0.00000000E+00  0.00000000E+00  0.00000000E+00
  0.00000000E+00  0.00000000E+00  0.00000000E+00
  0.00000000E+00  0.00000000E+00  0.00000000E+00
  0.00000000E+00  0.00000000E+00  0.00000000E+00
  0.00000000E+00  0.00000000E+00  0.00000000E+00
  0.00000000E+00  0.00000000E+00  0.00000000E+00
  0.00000000E+00  0.00000000E+00  0.00000000E+00
  0.00000000E+00  0.00000000E+00  0.00000000E+00
  0.00000000E+00  0.00000000E+00  0.00000000E+00
  0.00000000E+00  0.00000000E+00  0.00000000E+00
  0.00000000E+00  0.00000000E+00  0.00000000E+00
  0.00000000E+00  0.00000000E+00  0.00000000E+00
  0.00000000E+00  0.00000000E+00  0.00000000E+00
  0.00000000E+00  0.00000000E+00  0.00000000E+00
  0.00000000E+00  0.00000000E+00  0.00000000E+00
  0.00000000E+00  0.00000000E+00  0.00000000E+00
  0.00000000E+00  0.00000000E+00  0.00000000E+00
  0.00000000E+00  0.00000000E+00  0.00000000E+00
  0.00000000E+00  0.00000000E+00  0.00000000E+00
  0.00000000E+00  0.00000000E+00  0.00000000E+00
  0.00000000E+00  0.00000000E+00  0.00000000E+00
  0.00000000E+00  0.00000000E+00  0.00000000E+00
  0.00000000E+00  0.00000000E+00  0.00000000E+00
  0.00000000E+00  0.00000000E+00  0.00000000E+00
  0.00000000E+00  0.00000000E+00  0.00000000E+00
  0.00000000E+00  0.00000000E+00  0.00000000E+00
  0.00000000E+00  0.00000000E+00  0.00000000E+00
  0.00000000E+00  0.00000000E+00  0.00000000E+00
  0.00000000E+00  0.00000000E+00  0.00000000E+00
  0.00000000E+00  0.00000000E+00  0.00000000E+00
  0.00000000E+00  0.00000000E+00  0.00000000E+00
  0.00000000E+00  0.00000000E+00  0.00000000E+00
  0.00000000E+00  0.00000000E+00  0.00000000E+00
  0.00000000E+00  0.00000000E+00  0.00000000E+00
  0.00000000E+00  0.00000000E+00  0.00000000E+00
  0.00000000E+00  0.00000000E+00  0.00000000E+00
  0.00000000E+00  0.00000000E+00  0.00000000E+00
  0.00000000E+00  0.00000000E+00  0.00000000E+00
  0.00000000E+00  0.00000000E+00  0.00000000E+00
  0.00000000E+00  0.00000000E+00  0.00000000E+00
  0.00000000E+00  0.00000000E+00  0.00000000E+00
  0.00000000E+00  0.00000000E+00  0.00000000E+00
  0.00000000E+00  0.00000000E+00  0.00000000E+00
  0.00000000E+00  0.00000000E+00  0.00000000E+00
  0.00000000E+00  0.00000000E+00  0.00000000E+00
  0.00000000E+00  0.00000000E+00  0.00000000E+00
  0.00000000E+00  0.00000000E+00  0.00000000E+00
  0.00000000E+00  0.00000000E+00  0.00000000E+00
  0.00000000E+00  0.00000000E+00  0.00000000E+00
  0.00000000E+00  0.00000000E+00  0.00000000E+00
  0.00000000E+00  0.00000000E+00  0.00000000E+00
