CIF file                                
   1.00000000000000     
    11.3519997597000071    0.0000000000000000    0.0000000000000000
     0.0000000000000000   11.3519997597000071    0.0000000000000000
     0.0000000000000000    0.0000000000000000    9.6265001297000055
   Ti   O    N    Ta
    35    72     1     1
Direct
  0.1644789382518985  0.9998561097687407  0.7502251430168462
  0.4978367638297769  0.9996579097379414  0.7514643594954544
  0.8310965786856569  0.9994781872149603  0.7512378225574445
  0.1644621553074924  0.3333481019558427  0.7485692640943434
  0.4938300252020879  0.3333476360036548  0.7435714920525264
  0.8349140979651013  0.3333499874576856  0.7427652497059501
  0.1644752465065647  0.6668674048685552  0.7503544552954886
  0.4978223038288798  0.6670556665229892  0.7514941697900507
  0.8310891561390797  0.6672220133950812  0.7513056534115793
  0.9964747522511095  0.1651911363068574  0.2512651032062828
  0.3305252213048879  0.1651970425922795  0.2514808705612148
  0.6630821320172278  0.1672807562443264  0.2547815207112264
  0.9964391181288964  0.5014208206276813  0.2513025259305114
  0.3304706763661980  0.5014287807432862  0.2515007926506704
  0.6630259567862096  0.4992622783351784  0.2549030114377527
  0.9974929071131696  0.8333250719352477  0.2499181486526079
  0.3295982361819348  0.8333392075985565  0.2502883760113206
  0.6631218152670099  0.8332848305626267  0.2514254994982100
  0.9981442096684517  0.9997108486365315  0.9999916736639828
  0.3307005194151262  0.9997491128602690  0.0002763983375983
  0.6645558632090646  0.9978968484118353  0.0008030895653155
  0.9992957004158372  0.3333269921134420  0.0015465439898238
  0.3297898308983592  0.3333374834356564  0.0021172163243515
  0.9981249879278619  0.6669439145471880  1.0000749182043682
  0.3307220235277482  0.6669344380761411  0.0003541903490393
  0.6645367211237128  0.6686578884465060  0.0008938262396117
  0.1637474532548358  0.1664918041385123  0.5013049274134423
  0.4954884534533687  0.1647505781340316  0.4998503726026154
  0.8320868849377392  0.1644558546783099  0.4996938878177023
  0.1637037357514555  0.5002474529757509  0.5013776723218653
  0.4954131310333151  0.5019582907650542  0.4999064233030154
  0.8320594300114651  0.5022626960038481  0.4997434164405000
  0.1636712055150298  0.8333349742974983  0.5006290559187737
  0.4966329788181938  0.8333527325560933  0.5004821310304761
  0.8307959345090865  0.8333449001827969  0.4997975020337748
  0.9979342953677321  0.0002403491607568  0.7937899047705637
  0.3313991518602961  0.0000986254125376  0.7942020086943348
  0.6646064463376060  0.9998923817904046  0.7945744733035034
  0.9992827282107960  0.3333357016254907  0.7923386224868860
  0.3300643977637486  0.3333350073500159  0.7934743306429789
  0.6641190900469431  0.3333479173628311  0.7910160761123034
  0.9979306478368136  0.6664623122632826  0.7938886338766926
  0.3313939332169507  0.6666267698650181  0.7942747550945976
  0.6645933554398705  0.6667944841057140  0.7946535800777820
  0.1638811629865485  0.1676157122608580  0.2952496376888112
  0.4942895619535141  0.1473859856514558  0.2983979897095680
  0.8332021046914714  0.1468721803249247  0.2984847589942272
  0.1638595595931411  0.4991577930901969  0.2952538093993786
  0.4942657334421324  0.5190838724249673  0.2984517071888265
  0.8331461527946271  0.5196793500059549  0.2985444989359937
  0.1639032239027105  0.8331418764758068  0.2957328340268329
  0.4964472224729731  0.8334176037501079  0.2943738643751782
  0.8309005951117634  0.8333457695844541  0.2933798644488836
  0.9975992370406069  0.1671415870976453  0.0456183904036090
  0.3316514576144644  0.1671713280528271  0.0459691876545792
  0.6680971011518396  0.1652976581276924  0.0418218223570183
  0.9976709731776883  0.4994985587016506  0.0456537276875003
  0.3314574765779932  0.4994973960715253  0.0459905085730680
  0.6681072520178299  0.5013111817271402  0.0420032622588517
  0.9977933629570811  0.8333311020422421  0.0431387955654493
  0.3320954615050424  0.8333445024959274  0.0433313957809195
  0.6652744309742887  0.8332883474724030  0.0435743370346522
  0.1639554532740459 -0.0000449091036164  0.5441054576852272
  0.4987375428015936  0.9992956995813530  0.5458626668701462
  0.8296763211795727  0.9991512793901141  0.5454930514456140
  0.1642667852023197  0.3333649123149497  0.5452027794569024
  0.4953100045739554  0.3333518841218530  0.5401124222114289
  0.8323425930192818  0.3333533225556697  0.5391147240404117
  0.1639373161430533  0.6667520143843950  0.5442422970043562
  0.4986118443256234  0.6674032809741826  0.5458887913051313
  0.8297778470769522  0.6675404410654852  0.5455572057161734
  0.1646094694838281  0.0003623956672096  0.9557449072456118
  0.4979921182716954  0.0005479543453506  0.9574533928915744
  0.8315118476484272  0.9992593314290220  0.9568989322079683
  0.1645204544656471  0.3332842575340145  0.9578237924553958
  0.4950823648817911  0.3333936545391239  0.9498664234233711
  0.8346722036575392  0.3333560269053091  0.9480502309472840
  0.1646117077450918  0.6663954809685118  0.9558930429555133
  0.4979921121476178  0.6660661231767772  0.9575009757278969
  0.8314924439292444  0.6673508104697613  0.9569764984205128
  0.9980972396980964  0.1679920629450404  0.4585201914350085
  0.3298968337102113  0.1676321488208962  0.4588310667131250
  0.6640855447825970  0.1717678258872026  0.4554199859023701
  0.9980916908772477  0.4986956730049082  0.4585386927200983
  0.3298339893258993  0.4990876912288805  0.4588726774334146
  0.6640627288859198  0.4950260627796912  0.4555676184269183
  0.9970361883808614  0.8334017653576493  0.4563653984127201
  0.3307814032281381  0.8333690473262256  0.4570063973089232
  0.6639753406530657  0.8332401988316377  0.4554075680591138
  0.1649020886491183  0.1664387928253609  0.7070637192573177
  0.4977738707595410  0.1665190705790137  0.7061147724462598
  0.8314491503750243  0.1664664898416381  0.7058545495990339
  0.1648853681458348  0.5002727940018467  0.7071556667549762
  0.4977377587828788  0.5001797526050649  0.7061606505147999
  0.8314464363397971  0.5002278386483723  0.7059121903688451
  0.1647904405506666  0.8333571950870551  0.7068735626925110
  0.4978465014191818  0.8333489664757958  0.7076541901999530
  0.8316188366372628  0.8333444578549448  0.7070387708713208
  0.0019733274037876  0.9990818983857770  0.2051304573237573
  0.3251899336999897  0.9990390036031518  0.2053412149176497
  0.6615321715737599  0.9995639919262798  0.2051875627544990
  0.9912213821629731  0.3333189543451097  0.2086027691090475
  0.3364530567780233  0.3333241328265742  0.2092273877734648
  0.7361117468299456  0.3332712346680965  0.2021732415279672
  0.0017426658777968  0.6675545549218402  0.2051928677567254
  0.3255385446708310  0.6676221237798120  0.2053936106991208
  0.6614219144306845  0.6670435534748100  0.2053295540430738
  0.6083795998081251  0.3332757516432565  0.2091616310903241
  0.6650192217518527  0.3333012329131834  0.9992349610984164
 
  0.00000000E+00  0.00000000E+00  0.00000000E+00
  0.00000000E+00  0.00000000E+00  0.00000000E+00
  0.00000000E+00  0.00000000E+00  0.00000000E+00
  0.00000000E+00  0.00000000E+00  0.00000000E+00
  0.00000000E+00  0.00000000E+00  0.00000000E+00
  0.00000000E+00  0.00000000E+00  0.00000000E+00
  0.00000000E+00  0.00000000E+00  0.00000000E+00
  0.00000000E+00  0.00000000E+00  0.00000000E+00
  0.00000000E+00  0.00000000E+00  0.00000000E+00
  0.00000000E+00  0.00000000E+00  0.00000000E+00
  0.00000000E+00  0.00000000E+00  0.00000000E+00
  0.00000000E+00  0.00000000E+00  0.00000000E+00
  0.00000000E+00  0.00000000E+00  0.00000000E+00
  0.00000000E+00  0.00000000E+00  0.00000000E+00
  0.00000000E+00  0.00000000E+00  0.00000000E+00
  0.00000000E+00  0.00000000E+00  0.00000000E+00
  0.00000000E+00  0.00000000E+00  0.00000000E+00
  0.00000000E+00  0.00000000E+00  0.00000000E+00
  0.00000000E+00  0.00000000E+00  0.00000000E+00
  0.00000000E+00  0.00000000E+00  0.00000000E+00
  0.00000000E+00  0.00000000E+00  0.00000000E+00
  0.00000000E+00  0.00000000E+00  0.00000000E+00
  0.00000000E+00  0.00000000E+00  0.00000000E+00
  0.00000000E+00  0.00000000E+00  0.00000000E+00
  0.00000000E+00  0.00000000E+00  0.00000000E+00
  0.00000000E+00  0.00000000E+00  0.00000000E+00
  0.00000000E+00  0.00000000E+00  0.00000000E+00
  0.00000000E+00  0.00000000E+00  0.00000000E+00
  0.00000000E+00  0.00000000E+00  0.00000000E+00
  0.00000000E+00  0.00000000E+00  0.00000000E+00
  0.00000000E+00  0.00000000E+00  0.00000000E+00
  0.00000000E+00  0.00000000E+00  0.00000000E+00
  0.00000000E+00  0.00000000E+00  0.00000000E+00
  0.00000000E+00  0.00000000E+00  0.00000000E+00
  0.00000000E+00  0.00000000E+00  0.00000000E+00
  0.00000000E+00  0.00000000E+00  0.00000000E+00
  0.00000000E+00  0.00000000E+00  0.00000000E+00
  0.00000000E+00  0.00000000E+00  0.00000000E+00
  0.00000000E+00  0.00000000E+00  0.00000000E+00
  0.00000000E+00  0.00000000E+00  0.00000000E+00
  0.00000000E+00  0.00000000E+00  0.00000000E+00
  0.00000000E+00  0.00000000E+00  0.00000000E+00
  0.00000000E+00  0.00000000E+00  0.00000000E+00
  0.00000000E+00  0.00000000E+00  0.00000000E+00
  0.00000000E+00  0.00000000E+00  0.00000000E+00
  0.00000000E+00  0.00000000E+00  0.00000000E+00
  0.00000000E+00  0.00000000E+00  0.00000000E+00
  0.00000000E+00  0.00000000E+00  0.00000000E+00
  0.00000000E+00  0.00000000E+00  0.00000000E+00
  0.00000000E+00  0.00000000E+00  0.00000000E+00
  0.00000000E+00  0.00000000E+00  0.00000000E+00
  0.00000000E+00  0.00000000E+00  0.00000000E+00
  0.00000000E+00  0.00000000E+00  0.00000000E+00
  0.00000000E+00  0.00000000E+00  0.00000000E+00
  0.00000000E+00  0.00000000E+00  0.00000000E+00
  0.00000000E+00  0.00000000E+00  0.00000000E+00
  0.00000000E+00  0.00000000E+00  0.00000000E+00
  0.00000000E+00  0.00000000E+00  0.00000000E+00
  0.00000000E+00  0.00000000E+00  0.00000000E+00
  0.00000000E+00  0.00000000E+00  0.00000000E+00
  0.00000000E+00  0.00000000E+00  0.00000000E+00
  0.00000000E+00  0.00000000E+00  0.00000000E+00
  0.00000000E+00  0.00000000E+00  0.00000000E+00
  0.00000000E+00  0.00000000E+00  0.00000000E+00
  0.00000000E+00  0.00000000E+00  0.00000000E+00
  0.00000000E+00  0.00000000E+00  0.00000000E+00
  0.00000000E+00  0.00000000E+00  0.00000000E+00
  0.00000000E+00  0.00000000E+00  0.00000000E+00
  0.00000000E+00  0.00000000E+00  0.00000000E+00
  0.00000000E+00  0.00000000E+00  0.00000000E+00
  0.00000000E+00  0.00000000E+00  0.00000000E+00
  0.00000000E+00  0.00000000E+00  0.00000000E+00
  0.00000000E+00  0.00000000E+00  0.00000000E+00
  0.00000000E+00  0.00000000E+00  0.00000000E+00
  0.00000000E+00  0.00000000E+00  0.00000000E+00
  0.00000000E+00  0.00000000E+00  0.00000000E+00
  0.00000000E+00  0.00000000E+00  0.00000000E+00
  0.00000000E+00  0.00000000E+00  0.00000000E+00
  0.00000000E+00  0.00000000E+00  0.00000000E+00
  0.00000000E+00  0.00000000E+00  0.00000000E+00
  0.00000000E+00  0.00000000E+00  0.00000000E+00
  0.00000000E+00  0.00000000E+00  0.00000000E+00
  0.00000000E+00  0.00000000E+00  0.00000000E+00
  0.00000000E+00  0.00000000E+00  0.00000000E+00
  0.00000000E+00  0.00000000E+00  0.00000000E+00
  0.00000000E+00  0.00000000E+00  0.00000000E+00
  0.00000000E+00  0.00000000E+00  0.00000000E+00
  0.00000000E+00  0.00000000E+00  0.00000000E+00
  0.00000000E+00  0.00000000E+00  0.00000000E+00
  0.00000000E+00  0.00000000E+00  0.00000000E+00
  0.00000000E+00  0.00000000E+00  0.00000000E+00
  0.00000000E+00  0.00000000E+00  0.00000000E+00
  0.00000000E+00  0.00000000E+00  0.00000000E+00
  0.00000000E+00  0.00000000E+00  0.00000000E+00
  0.00000000E+00  0.00000000E+00  0.00000000E+00
  0.00000000E+00  0.00000000E+00  0.00000000E+00
  0.00000000E+00  0.00000000E+00  0.00000000E+00
  0.00000000E+00  0.00000000E+00  0.00000000E+00
  0.00000000E+00  0.00000000E+00  0.00000000E+00
  0.00000000E+00  0.00000000E+00  0.00000000E+00
  0.00000000E+00  0.00000000E+00  0.00000000E+00
  0.00000000E+00  0.00000000E+00  0.00000000E+00
  0.00000000E+00  0.00000000E+00  0.00000000E+00
  0.00000000E+00  0.00000000E+00  0.00000000E+00
  0.00000000E+00  0.00000000E+00  0.00000000E+00
  0.00000000E+00  0.00000000E+00  0.00000000E+00
  0.00000000E+00  0.00000000E+00  0.00000000E+00
  0.00000000E+00  0.00000000E+00  0.00000000E+00
  0.00000000E+00  0.00000000E+00  0.00000000E+00
