CIF file                                
   1.00000000000000     
    11.3519997597000071    0.0000000000000000    0.0000000000000000
     0.0000000000000000   11.3519997597000071    0.0000000000000000
     0.0000000000000000    0.0000000000000000    9.6265001297000055
   Ti   O    N    Ta
    35    72     1     1
Direct
  0.1644154894504053  0.9999275928391119  0.7502381219216390
  0.4978096110971436  0.9997007796629033  0.7514599240004547
  0.8309687833042532  0.9995195862315976  0.7513155011228444
  0.1644303061003509  0.3333515336149647  0.7485017139654477
  0.4938336878427526  0.3333524130832708  0.7435497702724720
  0.8348333665349850  0.3333495967196643  0.7427745975731750
  0.1644135208283483  0.6667915799698441  0.7503336418331507
  0.4978038578217470  0.6670040315891749  0.7514842733788833
  0.8309655359565978  0.6671816471218944  0.7513625712829033
  0.9964497939122667  0.1653002576077351  0.2513960174433762
  0.3306224553168737  0.1652975306776791  0.2516091021007880
  0.6631390032173112  0.1673661200410649  0.2547134935341878
  0.9964234696209360  0.5013356873268199  0.2514142016737981
  0.3305815203600420  0.5013358220407779  0.2516210978936234
  0.6631062163771325  0.4991954484955121  0.2547837790658019
  0.9974783925408276  0.8333297353175327  0.2498934541584119
  0.3296820523495999  0.8333403008560312  0.2502874369239788
  0.6631762463265762  0.8332963032173113  0.2512791072705521
  0.9980035741175656  0.9997826925179070  0.0001251752943051
  0.3306786828198643  0.9998202667000555  0.0003994975508493
  0.6644356149242429  0.9979973880315794  0.0011536160565184
  0.9992282073788790  0.3333218349168558  0.0014165401166877
  0.3298405551469986  0.3333379046444486  0.0019683998370894
  0.9979875874915429  0.6668576189438138  0.0001820845727234
  0.3306951414058638  0.6668576627019925  0.0004554894264896
  0.6644251959874362  0.6685660380749784  0.0012139067756008
  0.1637572607210807  0.1664896048352309  0.5011167172790884
  0.4955679637207722  0.1647492238695396  0.4997024518065773
  0.8320204315406152  0.1644306513299585  0.4995795322820963
  0.1637229396199611  0.5002446805025537  0.5011629161493448
  0.4955175228428382  0.5019672194384214  0.4997347610985498
  0.8319958339371637  0.5022836352401148  0.4996157973132659
  0.1636658384209681  0.8333384600234618  0.5006099143421732
  0.4966522685681200  0.8333559416753973  0.5004183396369778
  0.8307651848819092  0.8333478710603274  0.4997657031721403
  0.9979477149032527  0.0002526924827962  0.7939924299807803
  0.3313600139273356  0.0000978586548378  0.7943801001104804
  0.6645777252634322  0.9999143031766805  0.7947956696422988
  0.9993053386268776  0.3333363890427378  0.7923710366059250
  0.3300228821304130  0.3333354511275130  0.7934892909976881
  0.6641164360871313  0.3333381908562987  0.7910723973271583
  0.9979439178013685  0.6664376578851634  0.7940666147624998
  0.3313583407897708  0.6666280745138037  0.7944440326490743
  0.6645714656507058  0.6667687790835870  0.7948391030991864
  0.1639137042926149  0.1673818827645511  0.2954501846698387
  0.4941852882549214  0.1473052988257632  0.2985117704489360
  0.8333424982956426  0.1467212087169344  0.2986485123652356
  0.1638975207876260  0.4993665583761252  0.2954636548564945
  0.4941776602487903  0.5191744050468559  0.2985480803573470
  0.8333078654727829  0.5198329127442997  0.2986658674972950
  0.1639318057556967  0.8331944668403169  0.2960587889375064
  0.4963823561230304  0.8334108264142308  0.2946531078001244
  0.8310282411467026  0.8333498380295058  0.2936447504696105
  0.9975009414304743  0.1671032618059541  0.0456178002000193
  0.3318134465923184  0.1671141098396946  0.0459512963996651
  0.6681997474574214  0.1651681191865665  0.0418881456004365
  0.9975679541431193  0.4995410753068750  0.0456320350481275
  0.3316571354375333  0.4995387500582651  0.0459595130623024
  0.6682324877412513  0.5014431211150097  0.0420314111242335
  0.9976353023590183  0.8333286228616487  0.0431672417132675
  0.3323347323496159  0.8333403560151734  0.0433966921683513
  0.6654446864966752  0.8332909374745084  0.0435769514347599
  0.1639561921612954  0.9998889434818111  0.5443070999013938
  0.4986651276952500  0.9992378067714012  0.5459953839133878
  0.8297465392321824  0.9990838128379712  0.5456864312933166
  0.1642997074500541  0.3333601637162107  0.5453609379299661
  0.4952224645004683  0.3333505981464329  0.5403348227179935
  0.8324355023618741  0.3333495498661700  0.5393929165746283
  0.1639496717708141  0.6668197315999103  0.5444015071500967
  0.4985888738135699  0.6674581357466077  0.5460135351040407
  0.8298370319625340  0.6676060401525926  0.5457200015725564
  0.1646151940632511  0.0003455640078954  0.9556056216231851
  0.4978727529259043  0.0005170150160105  0.9573275306668376
  0.8315990048777948  0.9992705354427776  0.9567997668588274
  0.1645372997481928  0.3332955779136408  0.9575621861712388
  0.4949619864431475  0.3334004567016149  0.9497702644850033
  0.8348024693011318  0.3333431277430536  0.9479996174201163
  0.1646136149357088  0.6663703959067512  0.9556993120420154
  0.4978752686518477  0.6660694821741762  0.9573717527036989
  0.8315847819835580  0.6673341470280968  0.9568515233990330
  0.9981323217557760  0.1683496197699905  0.4584589454548008
  0.3298931292097246  0.1679446017714041  0.4587913823704774
  0.6641072408554622  0.1722270560330334  0.4553779332400090
  0.9981214412878243  0.4983492292123507  0.4584653822246461
  0.3298521890152418  0.4987691192794367  0.4588218337723338
  0.6640977115160051  0.4945648032553058  0.4554894444763423
  0.9970618793836752  0.8333927442052146  0.4563454002587871
  0.3307833873699295  0.8333653963220949  0.4570032986201390
  0.6640027014150487  0.8332678351527272  0.4554430170897837
  0.1648933366473699  0.1663352436235535  0.7069597563115211
  0.4977652009474019  0.1664135132602290  0.7059661214849955
  0.8314356263510750  0.1663560749748091  0.7057220582250037
  0.1648795088802796  0.5003735496801931  0.7070191455532528
  0.4977466983197665  0.5002847172745494  0.7059991581735089
  0.8314365933384358  0.5003329248487323  0.7057722164284812
  0.1647433326466910  0.8333530686598815  0.7067249825471023
  0.4978133696745016  0.8333470608555698  0.7074823513170445
  0.8316186416429504  0.8333427704803287  0.7069190491618951
  0.0020036830114603  0.9990179415120888  0.2048452943795009
  0.3252000378939749  0.9989771625440177  0.2050565992149221
  0.6614080788300962  0.9994482469503871  0.2051212049652446
  0.9911767422813891  0.3333211426585288  0.2082900875902744
  0.3364260862061966  0.3333275764813051  0.2088752448551590
  0.7360530421303020  0.3332675671165767  0.2022554846221570
  0.0018342724730168  0.6676242611596714  0.2048916589566717
  0.3254739993492338  0.6676839434477989  0.2050885706207150
  0.6613394291562007  0.6671722392872903  0.2052062862548128
  0.6083430543111548  0.3332863736813862  0.2091231401382186
  0.6650101248384075  0.3332966564165588  0.9993296127102134
 
  0.00000000E+00  0.00000000E+00  0.00000000E+00
  0.00000000E+00  0.00000000E+00  0.00000000E+00
  0.00000000E+00  0.00000000E+00  0.00000000E+00
  0.00000000E+00  0.00000000E+00  0.00000000E+00
  0.00000000E+00  0.00000000E+00  0.00000000E+00
  0.00000000E+00  0.00000000E+00  0.00000000E+00
  0.00000000E+00  0.00000000E+00  0.00000000E+00
  0.00000000E+00  0.00000000E+00  0.00000000E+00
  0.00000000E+00  0.00000000E+00  0.00000000E+00
  0.00000000E+00  0.00000000E+00  0.00000000E+00
  0.00000000E+00  0.00000000E+00  0.00000000E+00
  0.00000000E+00  0.00000000E+00  0.00000000E+00
  0.00000000E+00  0.00000000E+00  0.00000000E+00
  0.00000000E+00  0.00000000E+00  0.00000000E+00
  0.00000000E+00  0.00000000E+00  0.00000000E+00
  0.00000000E+00  0.00000000E+00  0.00000000E+00
  0.00000000E+00  0.00000000E+00  0.00000000E+00
  0.00000000E+00  0.00000000E+00  0.00000000E+00
  0.00000000E+00  0.00000000E+00  0.00000000E+00
  0.00000000E+00  0.00000000E+00  0.00000000E+00
  0.00000000E+00  0.00000000E+00  0.00000000E+00
  0.00000000E+00  0.00000000E+00  0.00000000E+00
  0.00000000E+00  0.00000000E+00  0.00000000E+00
  0.00000000E+00  0.00000000E+00  0.00000000E+00
  0.00000000E+00  0.00000000E+00  0.00000000E+00
  0.00000000E+00  0.00000000E+00  0.00000000E+00
  0.00000000E+00  0.00000000E+00  0.00000000E+00
  0.00000000E+00  0.00000000E+00  0.00000000E+00
  0.00000000E+00  0.00000000E+00  0.00000000E+00
  0.00000000E+00  0.00000000E+00  0.00000000E+00
  0.00000000E+00  0.00000000E+00  0.00000000E+00
  0.00000000E+00  0.00000000E+00  0.00000000E+00
  0.00000000E+00  0.00000000E+00  0.00000000E+00
  0.00000000E+00  0.00000000E+00  0.00000000E+00
  0.00000000E+00  0.00000000E+00  0.00000000E+00
  0.00000000E+00  0.00000000E+00  0.00000000E+00
  0.00000000E+00  0.00000000E+00  0.00000000E+00
  0.00000000E+00  0.00000000E+00  0.00000000E+00
  0.00000000E+00  0.00000000E+00  0.00000000E+00
  0.00000000E+00  0.00000000E+00  0.00000000E+00
  0.00000000E+00  0.00000000E+00  0.00000000E+00
  0.00000000E+00  0.00000000E+00  0.00000000E+00
  0.00000000E+00  0.00000000E+00  0.00000000E+00
  0.00000000E+00  0.00000000E+00  0.00000000E+00
  0.00000000E+00  0.00000000E+00  0.00000000E+00
  0.00000000E+00  0.00000000E+00  0.00000000E+00
  0.00000000E+00  0.00000000E+00  0.00000000E+00
  0.00000000E+00  0.00000000E+00  0.00000000E+00
  0.00000000E+00  0.00000000E+00  0.00000000E+00
  0.00000000E+00  0.00000000E+00  0.00000000E+00
  0.00000000E+00  0.00000000E+00  0.00000000E+00
  0.00000000E+00  0.00000000E+00  0.00000000E+00
  0.00000000E+00  0.00000000E+00  0.00000000E+00
  0.00000000E+00  0.00000000E+00  0.00000000E+00
  0.00000000E+00  0.00000000E+00  0.00000000E+00
  0.00000000E+00  0.00000000E+00  0.00000000E+00
  0.00000000E+00  0.00000000E+00  0.00000000E+00
  0.00000000E+00  0.00000000E+00  0.00000000E+00
  0.00000000E+00  0.00000000E+00  0.00000000E+00
  0.00000000E+00  0.00000000E+00  0.00000000E+00
  0.00000000E+00  0.00000000E+00  0.00000000E+00
  0.00000000E+00  0.00000000E+00  0.00000000E+00
  0.00000000E+00  0.00000000E+00  0.00000000E+00
  0.00000000E+00  0.00000000E+00  0.00000000E+00
  0.00000000E+00  0.00000000E+00  0.00000000E+00
  0.00000000E+00  0.00000000E+00  0.00000000E+00
  0.00000000E+00  0.00000000E+00  0.00000000E+00
  0.00000000E+00  0.00000000E+00  0.00000000E+00
  0.00000000E+00  0.00000000E+00  0.00000000E+00
  0.00000000E+00  0.00000000E+00  0.00000000E+00
  0.00000000E+00  0.00000000E+00  0.00000000E+00
  0.00000000E+00  0.00000000E+00  0.00000000E+00
  0.00000000E+00  0.00000000E+00  0.00000000E+00
  0.00000000E+00  0.00000000E+00  0.00000000E+00
  0.00000000E+00  0.00000000E+00  0.00000000E+00
  0.00000000E+00  0.00000000E+00  0.00000000E+00
  0.00000000E+00  0.00000000E+00  0.00000000E+00
  0.00000000E+00  0.00000000E+00  0.00000000E+00
  0.00000000E+00  0.00000000E+00  0.00000000E+00
  0.00000000E+00  0.00000000E+00  0.00000000E+00
  0.00000000E+00  0.00000000E+00  0.00000000E+00
  0.00000000E+00  0.00000000E+00  0.00000000E+00
  0.00000000E+00  0.00000000E+00  0.00000000E+00
  0.00000000E+00  0.00000000E+00  0.00000000E+00
  0.00000000E+00  0.00000000E+00  0.00000000E+00
  0.00000000E+00  0.00000000E+00  0.00000000E+00
  0.00000000E+00  0.00000000E+00  0.00000000E+00
  0.00000000E+00  0.00000000E+00  0.00000000E+00
  0.00000000E+00  0.00000000E+00  0.00000000E+00
  0.00000000E+00  0.00000000E+00  0.00000000E+00
  0.00000000E+00  0.00000000E+00  0.00000000E+00
  0.00000000E+00  0.00000000E+00  0.00000000E+00
  0.00000000E+00  0.00000000E+00  0.00000000E+00
  0.00000000E+00  0.00000000E+00  0.00000000E+00
  0.00000000E+00  0.00000000E+00  0.00000000E+00
  0.00000000E+00  0.00000000E+00  0.00000000E+00
  0.00000000E+00  0.00000000E+00  0.00000000E+00
  0.00000000E+00  0.00000000E+00  0.00000000E+00
  0.00000000E+00  0.00000000E+00  0.00000000E+00
  0.00000000E+00  0.00000000E+00  0.00000000E+00
  0.00000000E+00  0.00000000E+00  0.00000000E+00
  0.00000000E+00  0.00000000E+00  0.00000000E+00
  0.00000000E+00  0.00000000E+00  0.00000000E+00
  0.00000000E+00  0.00000000E+00  0.00000000E+00
  0.00000000E+00  0.00000000E+00  0.00000000E+00
  0.00000000E+00  0.00000000E+00  0.00000000E+00
  0.00000000E+00  0.00000000E+00  0.00000000E+00
  0.00000000E+00  0.00000000E+00  0.00000000E+00
  0.00000000E+00  0.00000000E+00  0.00000000E+00
