CIF file                                
   1.00000000000000     
    11.3519997597000071    0.0000000000000000    0.0000000000000000
     0.0000000000000000   11.3519997597000071    0.0000000000000000
     0.0000000000000000    0.0000000000000000    9.6265001297000055
   Ti   O    N    Ta
    35    72     1     1
Direct
  0.1643166989040074  0.9996879441540324  0.7500728702910990
  0.4967173881993429  0.9994192860153069  0.7513786588974269
  0.8318176351584183  0.9992759413299690  0.7513509307079007
  0.1645401144611499  0.3333505845879337  0.7470154451629699
  0.4897324577068201  0.3333357065445390  0.7397557992494302
  0.8393558006007936  0.3333423116596222  0.7389835099536489
  0.1643311161902137  0.6669921659254766  0.7501093542274710
  0.4967203684063058  0.6672386034688186  0.7513431736579637
  0.8318259922134229  0.6673934509096298  0.7513172195683528
  0.9973012658739777  0.1648718074755334  0.2513473634784441
  0.3307191905463173  0.1648536305664104  0.2515954579496862
  0.6641483758120827  0.1594753221209435  0.2562847023658053
  0.9972560406553292  0.5017440347631308  0.2512976305354718
  0.3306657348148056  0.5017560275854818  0.2515604385154872
  0.6640842099283839  0.5072982130233807  0.2562358674530482
  0.9977124992000544  0.8333111972383747  0.2496076568451182
  0.3294949293134306  0.8333181427834376  0.2499628846611317
  0.6632930552672599  0.8333851558548661  0.2515837227552398
  0.9982508098249812  0.9997774377059757  0.0003225399676596
  0.3302037797184987  0.9997718572966428  0.0005844536099580
  0.6641979596125951  0.9976384306274542  0.9977535634554054
  0.0002090384802876  0.3333094520798782  0.0028496166857474
  0.3286762881473479  0.3333086125283891  0.0032791438361142
  0.9982485622773398  0.6668699741323647  0.0003121028966286
  0.3302353659886483  0.6668676109892409  0.0005962118436261
  0.6642047719949340  0.6691002999803077  0.9977283449320126
  0.1638219035415783  0.1660494554178851  0.5011609697116687
  0.4951290406593978  0.1636079629612043  0.4996361200997213
  0.8325794567319280  0.1634107681540442  0.4996040014389823
  0.1637880119983471  0.5006392060226408  0.5011408885882097
  0.4950887577757076  0.5030495845192402  0.4996094499565825
  0.8325378246874219  0.5032589310431633  0.4995601022884069
  0.1637008410422404  0.8333262913648328  0.5003853186355818
  0.4962732450496715  0.8333414614084522  0.4999972154514394
  0.8312279192287210  0.8333403281234413  0.4994697660154879
  0.9978410809934987  0.0000178286017070  0.7941552405898886
  0.3312107716926246  0.9999201275280120  0.7943607249614767
  0.6645159548616295  0.0008705817359821  0.7945969821051143
  0.9998105219123480  0.3333457242477442  0.7927414360779803
  0.3295946966534822  0.3333296983576570  0.7935873078258083
  0.6646134274235890  0.3333516364647742  0.7861108624006958
  0.9978484397882400  0.6666374398633009  0.7941514254458382
  0.3312166439187731  0.6667435607128248  0.7943723294501277
  0.6645128624716437  0.6658134440761849  0.7945760890797284
  0.1640770654918064  0.1674481587477299  0.2951242932211645
  0.4944149090320976  0.1455367223896093  0.2989029072235098
  0.8336520181646172  0.1448814587546413  0.2986632146365214
  0.1640536539734866  0.4992619054610940  0.2950739833293989
  0.4943973463628995  0.5210284140156124  0.2988714001724344
  0.8335961104485882  0.5217159917440636  0.2985881532944513
  0.1639542748028754  0.8331808538653899  0.2958471083229469
  0.4967359852680125  0.8334138951995085  0.2941220859094317
  0.8308795126310495  0.8333446023730214  0.2933343660574899
  0.9975277344141972  0.1673425425470420  0.0456559392501519
  0.3320596963482642  0.1673230207733435  0.0459221862093075
  0.6659786324252073  0.1702403415318545  0.0467235903151866
  0.9975285487329276  0.4992784651174682  0.0456009180081856
  0.3319536727010420  0.4993115787138796  0.0459220824727402
  0.6660581047044939  0.4964731109038845  0.0467565946181205
  0.9965955298847998  0.8333252728143589  0.0424941416074852
  0.3328753498741183  0.8333256050066927  0.0429279512896212
  0.6649785462149976  0.8333485469183869  0.0400360851280549
  0.1639726217361928  0.9998107070463315  0.5443103980875714
  0.4985650540866950  0.9989724738125731  0.5461201720997730
  0.8299483820810297  0.9988450949074216  0.5459317581127596
  0.1643262536818177  0.3333464139156492  0.5453370895390370
  0.4947823270071328  0.3333345830820436  0.5392757736729349
  0.8334656689551317  0.3333389836591089  0.5385270550176899
  0.1639800861260680  0.6668532708336123  0.5443433582471849
  0.4985328951065355  0.6677039938472192  0.5460747359365768
  0.8299796943634266  0.6678312448980850  0.5458749029188943
  0.1645199012805680  0.0005132710486475  0.9557378333586765
  0.4980065118337667  0.0018627791978091  0.9572777019029612
  0.8310335272578439  0.0016568254370356  0.9571728478377610
  0.1645671208812430  0.3333006260064575  0.9582063800584694
  0.4960307804203806  0.3334014564454083  0.9499483524627877
  0.8338311363348819  0.3333248054497250  0.9485843912434029
  0.1645282845193380  0.6661720806013992  0.9557806365030014
  0.4980220731057565  0.6647547859521709  0.9572518734869123
  0.8310324677529390  0.6650434268788752  0.9571053977134073
  0.9982748596993938  0.1683645818444112  0.4582896518572734
  0.3299343076054852  0.1680145045851748  0.4587207002998583
  0.6642968238295951  0.1712113373225249  0.4559330240796518
  0.9982489742475047  0.4983119746567498  0.4582212081062415
  0.3298995636417089  0.4986436209702845  0.4586755002851644
  0.6642723874362648  0.4955285267082126  0.4558947958140157
  0.9969767252219908  0.8333561750516130  0.4560533827192070
  0.3309463594327315  0.8333512563993568  0.4566068943887612
  0.6640536497344988  0.8333352442088371  0.4542752831504874
  0.1648108633999355  0.1663530874954125  0.7068852961522728
  0.4974883073127492  0.1665499129585817  0.7059532339733369
  0.8319391377584868  0.1664912671449170  0.7056375627204829
  0.1647932964556257  0.5003314041725765  0.7068781267752003
  0.4974514918501812  0.5001320600680381  0.7059016951234318
  0.8319142201294174  0.5001889211347064  0.7055884347062408
  0.1646565957507762  0.8333341579805289  0.7066291397491230
  0.4981777070409834  0.8333311964252723  0.7077028604259921
  0.8311211881019458  0.8333325717947723  0.7074306293666359
  0.0024157246628051  0.9989090482702061  0.2045606289293949
  0.3249411600793124  0.9989355925965610  0.2048300322245794
  0.6620763169782936  0.9980360880250100  0.2029263269020493
  0.9898625624327008  0.3333158733481345  0.2083863134000867
  0.3371882864643856  0.3333134971556632  0.2088484728674088
  0.7300936062758544  0.3332611986936653  0.2196508694215251
  0.0022923669514396  0.6677160822102720  0.2045308968975050
  0.3251890583037272  0.6677079821518294  0.2048257973086448
  0.6619792715880004  0.6686896619252475  0.2029496113207621
  0.6123718079376018  0.3333317256321513  0.2253611103387678
  0.6649877186094761  0.3333602405552765  0.9849799678042427
 
  0.00000000E+00  0.00000000E+00  0.00000000E+00
  0.00000000E+00  0.00000000E+00  0.00000000E+00
  0.00000000E+00  0.00000000E+00  0.00000000E+00
  0.00000000E+00  0.00000000E+00  0.00000000E+00
  0.00000000E+00  0.00000000E+00  0.00000000E+00
  0.00000000E+00  0.00000000E+00  0.00000000E+00
  0.00000000E+00  0.00000000E+00  0.00000000E+00
  0.00000000E+00  0.00000000E+00  0.00000000E+00
  0.00000000E+00  0.00000000E+00  0.00000000E+00
  0.00000000E+00  0.00000000E+00  0.00000000E+00
  0.00000000E+00  0.00000000E+00  0.00000000E+00
  0.00000000E+00  0.00000000E+00  0.00000000E+00
  0.00000000E+00  0.00000000E+00  0.00000000E+00
  0.00000000E+00  0.00000000E+00  0.00000000E+00
  0.00000000E+00  0.00000000E+00  0.00000000E+00
  0.00000000E+00  0.00000000E+00  0.00000000E+00
  0.00000000E+00  0.00000000E+00  0.00000000E+00
  0.00000000E+00  0.00000000E+00  0.00000000E+00
  0.00000000E+00  0.00000000E+00  0.00000000E+00
  0.00000000E+00  0.00000000E+00  0.00000000E+00
  0.00000000E+00  0.00000000E+00  0.00000000E+00
  0.00000000E+00  0.00000000E+00  0.00000000E+00
  0.00000000E+00  0.00000000E+00  0.00000000E+00
  0.00000000E+00  0.00000000E+00  0.00000000E+00
  0.00000000E+00  0.00000000E+00  0.00000000E+00
  0.00000000E+00  0.00000000E+00  0.00000000E+00
  0.00000000E+00  0.00000000E+00  0.00000000E+00
  0.00000000E+00  0.00000000E+00  0.00000000E+00
  0.00000000E+00  0.00000000E+00  0.00000000E+00
  0.00000000E+00  0.00000000E+00  0.00000000E+00
  0.00000000E+00  0.00000000E+00  0.00000000E+00
  0.00000000E+00  0.00000000E+00  0.00000000E+00
  0.00000000E+00  0.00000000E+00  0.00000000E+00
  0.00000000E+00  0.00000000E+00  0.00000000E+00
  0.00000000E+00  0.00000000E+00  0.00000000E+00
  0.00000000E+00  0.00000000E+00  0.00000000E+00
  0.00000000E+00  0.00000000E+00  0.00000000E+00
  0.00000000E+00  0.00000000E+00  0.00000000E+00
  0.00000000E+00  0.00000000E+00  0.00000000E+00
  0.00000000E+00  0.00000000E+00  0.00000000E+00
  0.00000000E+00  0.00000000E+00  0.00000000E+00
  0.00000000E+00  0.00000000E+00  0.00000000E+00
  0.00000000E+00  0.00000000E+00  0.00000000E+00
  0.00000000E+00  0.00000000E+00  0.00000000E+00
  0.00000000E+00  0.00000000E+00  0.00000000E+00
  0.00000000E+00  0.00000000E+00  0.00000000E+00
  0.00000000E+00  0.00000000E+00  0.00000000E+00
  0.00000000E+00  0.00000000E+00  0.00000000E+00
  0.00000000E+00  0.00000000E+00  0.00000000E+00
  0.00000000E+00  0.00000000E+00  0.00000000E+00
  0.00000000E+00  0.00000000E+00  0.00000000E+00
  0.00000000E+00  0.00000000E+00  0.00000000E+00
  0.00000000E+00  0.00000000E+00  0.00000000E+00
  0.00000000E+00  0.00000000E+00  0.00000000E+00
  0.00000000E+00  0.00000000E+00  0.00000000E+00
  0.00000000E+00  0.00000000E+00  0.00000000E+00
  0.00000000E+00  0.00000000E+00  0.00000000E+00
  0.00000000E+00  0.00000000E+00  0.00000000E+00
  0.00000000E+00  0.00000000E+00  0.00000000E+00
  0.00000000E+00  0.00000000E+00  0.00000000E+00
  0.00000000E+00  0.00000000E+00  0.00000000E+00
  0.00000000E+00  0.00000000E+00  0.00000000E+00
  0.00000000E+00  0.00000000E+00  0.00000000E+00
  0.00000000E+00  0.00000000E+00  0.00000000E+00
  0.00000000E+00  0.00000000E+00  0.00000000E+00
  0.00000000E+00  0.00000000E+00  0.00000000E+00
  0.00000000E+00  0.00000000E+00  0.00000000E+00
  0.00000000E+00  0.00000000E+00  0.00000000E+00
  0.00000000E+00  0.00000000E+00  0.00000000E+00
  0.00000000E+00  0.00000000E+00  0.00000000E+00
  0.00000000E+00  0.00000000E+00  0.00000000E+00
  0.00000000E+00  0.00000000E+00  0.00000000E+00
  0.00000000E+00  0.00000000E+00  0.00000000E+00
  0.00000000E+00  0.00000000E+00  0.00000000E+00
  0.00000000E+00  0.00000000E+00  0.00000000E+00
  0.00000000E+00  0.00000000E+00  0.00000000E+00
  0.00000000E+00  0.00000000E+00  0.00000000E+00
  0.00000000E+00  0.00000000E+00  0.00000000E+00
  0.00000000E+00  0.00000000E+00  0.00000000E+00
  0.00000000E+00  0.00000000E+00  0.00000000E+00
  0.00000000E+00  0.00000000E+00  0.00000000E+00
  0.00000000E+00  0.00000000E+00  0.00000000E+00
  0.00000000E+00  0.00000000E+00  0.00000000E+00
  0.00000000E+00  0.00000000E+00  0.00000000E+00
  0.00000000E+00  0.00000000E+00  0.00000000E+00
  0.00000000E+00  0.00000000E+00  0.00000000E+00
  0.00000000E+00  0.00000000E+00  0.00000000E+00
  0.00000000E+00  0.00000000E+00  0.00000000E+00
  0.00000000E+00  0.00000000E+00  0.00000000E+00
  0.00000000E+00  0.00000000E+00  0.00000000E+00
  0.00000000E+00  0.00000000E+00  0.00000000E+00
  0.00000000E+00  0.00000000E+00  0.00000000E+00
  0.00000000E+00  0.00000000E+00  0.00000000E+00
  0.00000000E+00  0.00000000E+00  0.00000000E+00
  0.00000000E+00  0.00000000E+00  0.00000000E+00
  0.00000000E+00  0.00000000E+00  0.00000000E+00
  0.00000000E+00  0.00000000E+00  0.00000000E+00
  0.00000000E+00  0.00000000E+00  0.00000000E+00
  0.00000000E+00  0.00000000E+00  0.00000000E+00
  0.00000000E+00  0.00000000E+00  0.00000000E+00
  0.00000000E+00  0.00000000E+00  0.00000000E+00
  0.00000000E+00  0.00000000E+00  0.00000000E+00
  0.00000000E+00  0.00000000E+00  0.00000000E+00
  0.00000000E+00  0.00000000E+00  0.00000000E+00
  0.00000000E+00  0.00000000E+00  0.00000000E+00
  0.00000000E+00  0.00000000E+00  0.00000000E+00
  0.00000000E+00  0.00000000E+00  0.00000000E+00
  0.00000000E+00  0.00000000E+00  0.00000000E+00
  0.00000000E+00  0.00000000E+00  0.00000000E+00
