CIF file                                
   1.00000000000000     
    11.3519997597000071    0.0000000000000000    0.0000000000000000
     0.0000000000000000   11.3519997597000071    0.0000000000000000
     0.0000000000000000    0.0000000000000000    9.6265001297000055
   Ti   O    N 
    36    71     1
Direct
  0.1668105781199775  0.0000385917487309  0.7498645212441404
  0.4999968053538998  0.9999909410593747  0.7485639545227574
  0.8331863810158517  0.9999547393794648  0.7498723873860976
  0.1668186748239045  0.3338325957711243  0.7501590691796799
  0.5000012927350176  0.3358869205123477  0.7493411070966139
  0.8331743444999963  0.3337374259146439  0.7501587415386901
  0.1668230142062839  0.6662523318266037  0.7501665519259372
  0.5000016123843550  0.6640517431291710  0.7493468251187344
  0.8331883561035632  0.6661620762847257  0.7501616013967451
  0.0000206194992585  0.1667857329375039  0.2500154237649120
  0.3334903619227496  0.1669910375106414  0.2493207316116157
  0.6665294191479829  0.1669852294284742  0.2493325067782800
  0.0000001937630492  0.5000155848790853  0.2514690341135730
  0.3372075164019960  0.5000014484589642  0.2513134672511186
  0.6627928783459763  0.4999984662388288  0.2513138296028514
  0.9999756487192029  0.8332606726377324  0.2500366421291836
  0.3334752875586093  0.8330155864089728  0.2493459799127256
  0.6665117256280666  0.8330081306123819  0.2493362673279634
  0.9999972887395966  0.0000161682915165  0.9998347693919337
  0.3337219859017950  1.0000001825271525  0.9997812982664988
  0.6662695235652180  0.9999925781304931  0.9997838865753955
  1.0000008558557356  0.3336245510723622  0.0000835539301630
  0.3335290155334808  0.3340526385916555  0.0001185549838146
  0.6664757658975052  0.3340451872806122  0.0001265714523421
  0.9999984019864263  0.6664162152380888  0.0001151664849505
  0.3335225206869722  0.6659606400096258  0.0001270213526107
  0.6664707980808620  0.6659512138426749  0.0001216864073473
  0.1668599427389645  0.1669149228798538  0.5001221056120964
  0.5000111670477175  0.1676650295020299  0.5007804120756097
  0.8331695170644869  0.1668579278339166  0.5001145014583905
  0.1663673531774917  0.5000225885675487  0.4989178631010934
  0.4999985824362664  0.5000012475877573  0.4907235484502806
  0.8336331375994831  0.4999729003695029  0.4989173962042688
  0.1668348134494374  0.8331372115990068  0.5001243171433158
  0.4999954101810469  0.8323287840125557  0.5007992882325740
  0.8331398053108046  0.8330822251713047  0.5001392260254709
 -0.0000018839443532  0.0000044354773687  0.7938725508590184
  0.3332956841654052  0.0000090382362290  0.7935764547385570
  0.6667012356442207  0.9999928140717080  0.7935798099098516
 -0.0000011096781911  0.3333095465342437  0.7941272643696858
  0.3331446164742934  0.3326084483147957  0.7940232286559495
  0.6668581829744731  0.3325879034649886  0.7940336950551057
  0.0000031470227339  0.6666975042750004  0.7941418983200038
  0.3331400068753972  0.6673938615543181  0.7940350005634818
  0.6668601030404748  0.6673728688445543  0.7940244500636419
  0.1665426088093034  0.1658306876761029  0.2942707146880629
  0.5000086668714998  0.1674343172365674  0.2935980787099395
  0.8334812238858992  0.1658064461118225  0.2942694372041322
  0.1643911705322459  0.5000101309769578  0.2964878507201007
  0.8356094908762800  0.4999955861023125  0.2964870073997823
  0.1665188387822296  0.8342061973985692  0.2942834491988583
  0.4999938280866578  0.8325651116938139  0.2936132114994193
  0.8334529053930603  0.8341784405456456  0.2942885525596480
  0.0000119787447799  0.1665130361414613  0.0439822739859700
  0.3334847070578488  0.1662984223307281  0.0435554373217548
  0.6665290986313858  0.1662900706263156  0.0435601719255774
  1.0000001566161445  0.5000130156959982  0.0442588198133500
  0.3323973257027912  0.5000040764179046  0.0421676745166572
  0.6676023284105874  0.4999961104195493  0.0421695675489394
  0.9999838189599629  0.8335059940659052  0.0440098508068860
  0.3334792023713713  0.8337063741847350  0.0435682211355036
  0.6665065313495601  0.8336983753113348  0.0435691043040697
  0.1668088778329009  0.0000183515085103  0.5440458576660410
  0.5000006720790671 -0.0000027288832950  0.5433751590709928
  0.8331902099827401  0.9999822303709335  0.5440503737241553
  0.1663175227585442  0.3329494271002486  0.5446272641827758
  0.5000152240841492  0.3333579021836551  0.5448146765466531
  0.8336776658252922  0.3329118676515367  0.5446304481465783
  0.1663213437872897  0.6670846856728537  0.5446343193155737
  0.4999908653806532  0.6666261780841241  0.5448209534262927
  0.8336832266803185  0.6670474734600965  0.5446314069168968
  0.1666604977483185  0.9999973171011384  0.9557301668106123
  0.4999981585153229  0.9999946137594521  0.9553335550314139
  0.8333364602451798  0.9999818679568218  0.9557338298352909
  0.1664059009600978  0.3326500823959366  0.9558521008479646
  0.5000030101701696  0.3330372746267047  0.9566476113294063
  0.8336016865100968  0.3326283171809960  0.9558620549459718
  0.1664013521931532  0.6673898284303970  0.9558665974420091
  0.4999980051171445  0.6669536531631195  0.9566514673664126
  0.8335950420684188  0.6673628578385435  0.9558623767916657
  0.0000098925969969  0.1665903322252610  0.4560086305964793
  0.3333414169409147  0.1667978514516631  0.4556889737137654
  0.6666777834885760  0.1667794610533199  0.4556884202393822
  1.0000001558689278  0.5000012988899956  0.4592220167898878
  0.3313183412219192  0.4999948035896444  0.4589330891324762
  0.6686827034892601  0.4999967662078770  0.4589305506571854
  0.9999883059759479  0.8334204402309286  0.4560306066204561
  0.3333267797136159  0.8332130088385710  0.4556996189312581
  0.6666593691283367  0.8331986925096688  0.4557035736033899
  0.1664531162150704  0.1664737574983273  0.7060058021569774
  0.4999997823810596  0.1665270801470276  0.7054905876007643
  0.8335452167080504  0.1664328675085320  0.7060091724866669
  0.1666081674294940  0.5000183626084536  0.7076429825196515
  0.5000008263936498  0.4999846961347875  0.7116511593466939
  0.8333905083931121  0.4999784503994785  0.7076426663829731
  0.1664570664503417  0.8335643209298337  0.7060125518380951
  0.4999985147889811  0.8334606513798412  0.7054985402314091
  0.8335415254510560  0.8335252976715533  0.7060146618915087
  0.0000025472573359  0.0000129049364979  0.2055950432184979
  0.3336065861123894  1.0000022381499938  0.2056106832631142
  0.6663925901931379 -0.0000059562051080  0.2056151239288824
  0.0000014025381976  0.3328530947959429  0.2058542452737745
  0.3309184030324077  0.3323872542585527  0.2048904001216581
  0.6690885013250775  0.3323810247389528  0.2048975856331610
  0.0000001614917135  0.6671693242056644  0.2058755473169729
  0.3309063973014317  0.6676190351241127  0.2049039338813265
  0.6690835287898358  0.6676126112533386  0.2049015058620074
  0.5000002282451868  0.4999988489104311  0.2914085224413616
 
  0.00000000E+00  0.00000000E+00  0.00000000E+00
  0.00000000E+00  0.00000000E+00  0.00000000E+00
  0.00000000E+00  0.00000000E+00  0.00000000E+00
  0.00000000E+00  0.00000000E+00  0.00000000E+00
  0.00000000E+00  0.00000000E+00  0.00000000E+00
  0.00000000E+00  0.00000000E+00  0.00000000E+00
  0.00000000E+00  0.00000000E+00  0.00000000E+00
  0.00000000E+00  0.00000000E+00  0.00000000E+00
  0.00000000E+00  0.00000000E+00  0.00000000E+00
  0.00000000E+00  0.00000000E+00  0.00000000E+00
  0.00000000E+00  0.00000000E+00  0.00000000E+00
  0.00000000E+00  0.00000000E+00  0.00000000E+00
  0.00000000E+00  0.00000000E+00  0.00000000E+00
  0.00000000E+00  0.00000000E+00  0.00000000E+00
  0.00000000E+00  0.00000000E+00  0.00000000E+00
  0.00000000E+00  0.00000000E+00  0.00000000E+00
  0.00000000E+00  0.00000000E+00  0.00000000E+00
  0.00000000E+00  0.00000000E+00  0.00000000E+00
  0.00000000E+00  0.00000000E+00  0.00000000E+00
  0.00000000E+00  0.00000000E+00  0.00000000E+00
  0.00000000E+00  0.00000000E+00  0.00000000E+00
  0.00000000E+00  0.00000000E+00  0.00000000E+00
  0.00000000E+00  0.00000000E+00  0.00000000E+00
  0.00000000E+00  0.00000000E+00  0.00000000E+00
  0.00000000E+00  0.00000000E+00  0.00000000E+00
  0.00000000E+00  0.00000000E+00  0.00000000E+00
  0.00000000E+00  0.00000000E+00  0.00000000E+00
  0.00000000E+00  0.00000000E+00  0.00000000E+00
  0.00000000E+00  0.00000000E+00  0.00000000E+00
  0.00000000E+00  0.00000000E+00  0.00000000E+00
  0.00000000E+00  0.00000000E+00  0.00000000E+00
  0.00000000E+00  0.00000000E+00  0.00000000E+00
  0.00000000E+00  0.00000000E+00  0.00000000E+00
  0.00000000E+00  0.00000000E+00  0.00000000E+00
  0.00000000E+00  0.00000000E+00  0.00000000E+00
  0.00000000E+00  0.00000000E+00  0.00000000E+00
  0.00000000E+00  0.00000000E+00  0.00000000E+00
  0.00000000E+00  0.00000000E+00  0.00000000E+00
  0.00000000E+00  0.00000000E+00  0.00000000E+00
  0.00000000E+00  0.00000000E+00  0.00000000E+00
  0.00000000E+00  0.00000000E+00  0.00000000E+00
  0.00000000E+00  0.00000000E+00  0.00000000E+00
  0.00000000E+00  0.00000000E+00  0.00000000E+00
  0.00000000E+00  0.00000000E+00  0.00000000E+00
  0.00000000E+00  0.00000000E+00  0.00000000E+00
  0.00000000E+00  0.00000000E+00  0.00000000E+00
  0.00000000E+00  0.00000000E+00  0.00000000E+00
  0.00000000E+00  0.00000000E+00  0.00000000E+00
  0.00000000E+00  0.00000000E+00  0.00000000E+00
  0.00000000E+00  0.00000000E+00  0.00000000E+00
  0.00000000E+00  0.00000000E+00  0.00000000E+00
  0.00000000E+00  0.00000000E+00  0.00000000E+00
  0.00000000E+00  0.00000000E+00  0.00000000E+00
  0.00000000E+00  0.00000000E+00  0.00000000E+00
  0.00000000E+00  0.00000000E+00  0.00000000E+00
  0.00000000E+00  0.00000000E+00  0.00000000E+00
  0.00000000E+00  0.00000000E+00  0.00000000E+00
  0.00000000E+00  0.00000000E+00  0.00000000E+00
  0.00000000E+00  0.00000000E+00  0.00000000E+00
  0.00000000E+00  0.00000000E+00  0.00000000E+00
  0.00000000E+00  0.00000000E+00  0.00000000E+00
  0.00000000E+00  0.00000000E+00  0.00000000E+00
  0.00000000E+00  0.00000000E+00  0.00000000E+00
  0.00000000E+00  0.00000000E+00  0.00000000E+00
  0.00000000E+00  0.00000000E+00  0.00000000E+00
  0.00000000E+00  0.00000000E+00  0.00000000E+00
  0.00000000E+00  0.00000000E+00  0.00000000E+00
  0.00000000E+00  0.00000000E+00  0.00000000E+00
  0.00000000E+00  0.00000000E+00  0.00000000E+00
  0.00000000E+00  0.00000000E+00  0.00000000E+00
  0.00000000E+00  0.00000000E+00  0.00000000E+00
  0.00000000E+00  0.00000000E+00  0.00000000E+00
  0.00000000E+00  0.00000000E+00  0.00000000E+00
  0.00000000E+00  0.00000000E+00  0.00000000E+00
  0.00000000E+00  0.00000000E+00  0.00000000E+00
  0.00000000E+00  0.00000000E+00  0.00000000E+00
  0.00000000E+00  0.00000000E+00  0.00000000E+00
  0.00000000E+00  0.00000000E+00  0.00000000E+00
  0.00000000E+00  0.00000000E+00  0.00000000E+00
  0.00000000E+00  0.00000000E+00  0.00000000E+00
  0.00000000E+00  0.00000000E+00  0.00000000E+00
  0.00000000E+00  0.00000000E+00  0.00000000E+00
  0.00000000E+00  0.00000000E+00  0.00000000E+00
  0.00000000E+00  0.00000000E+00  0.00000000E+00
  0.00000000E+00  0.00000000E+00  0.00000000E+00
  0.00000000E+00  0.00000000E+00  0.00000000E+00
  0.00000000E+00  0.00000000E+00  0.00000000E+00
  0.00000000E+00  0.00000000E+00  0.00000000E+00
  0.00000000E+00  0.00000000E+00  0.00000000E+00
  0.00000000E+00  0.00000000E+00  0.00000000E+00
  0.00000000E+00  0.00000000E+00  0.00000000E+00
  0.00000000E+00  0.00000000E+00  0.00000000E+00
  0.00000000E+00  0.00000000E+00  0.00000000E+00
  0.00000000E+00  0.00000000E+00  0.00000000E+00
  0.00000000E+00  0.00000000E+00  0.00000000E+00
  0.00000000E+00  0.00000000E+00  0.00000000E+00
  0.00000000E+00  0.00000000E+00  0.00000000E+00
  0.00000000E+00  0.00000000E+00  0.00000000E+00
  0.00000000E+00  0.00000000E+00  0.00000000E+00
  0.00000000E+00  0.00000000E+00  0.00000000E+00
  0.00000000E+00  0.00000000E+00  0.00000000E+00
  0.00000000E+00  0.00000000E+00  0.00000000E+00
  0.00000000E+00  0.00000000E+00  0.00000000E+00
  0.00000000E+00  0.00000000E+00  0.00000000E+00
  0.00000000E+00  0.00000000E+00  0.00000000E+00
  0.00000000E+00  0.00000000E+00  0.00000000E+00
  0.00000000E+00  0.00000000E+00  0.00000000E+00
  0.00000000E+00  0.00000000E+00  0.00000000E+00
