CIF file                                
   1.00000000000000     
    11.3519997597000071    0.0000000000000000    0.0000000000000000
     0.0000000000000000   11.3519997597000071    0.0000000000000000
     0.0000000000000000    0.0000000000000000    9.6265001297000055
   Ti   O    N 
    36    71     1
Direct
  0.1665142711680663  0.0000124412730062  0.7501064949853532
  0.5000030537351243  0.9999702845248634  0.7502471593170111
  0.8334813472837886  0.9999938118124857  0.7501367735330541
  0.1664342988190873  0.3330611344281149  0.7503583168696540
  0.4999895427297895  0.3338613777735662  0.7499369088574906
  0.8335355494789507  0.3330626730118232  0.7503310154821577
  0.1664359745660411  0.6669442556674406  0.7503551681049384
  0.4999768494974196  0.6660866559462238  0.7499278907888333
  0.8335441796932938  0.6669459992294930  0.7503362430448713
  0.9999902488046685  0.1667249772299974  0.2500182309987728
  0.3335110929419344  0.1664267725880677  0.2501041042390986
  0.6664846551925848  0.1664235214126446  0.2500877314494412
  0.0000205539517259  0.4999978615784693  0.2509204322458636
  0.3289296952122652  0.5000051128660080  0.2469746964192178
  0.6711099922927001  0.4999906805167060  0.2469952153773521
  0.0000343690282006  0.8332736989093531  0.2500064668918875
  0.3335291427277912  0.8335788295707430  0.2500951882155339
  0.6665020486653449  0.8335613649201647  0.2500858621761864
  0.0000126231797463  0.0000044067291484  0.0002311850063666
  0.3332125501191445  0.0000211424129107  0.9998945559158895
  0.6667828278332953  0.9999771593575093  0.9999043453773927
  0.9999515001944054  0.3333429443949509  0.0002685633830887
  0.3332919060655100  0.3333521590319802  0.9991023618156302
  0.6666265033057539  0.3333313152492321  0.9991074975403480
  0.9999780408859619  0.6666608733388971  0.0002747770549820
  0.3333123406932121  0.6666740426410503  0.9991123024229941
  0.6666511585952349  0.6666326033813882  0.9990785612434999
  0.1667013800548459  0.1667394827522153  0.5001181420476480
  0.5000051799567604  0.1665373731676692  0.5005129675180094
  0.8333007609812512  0.1666324020089668  0.5001257785814940
  0.1666766099826170  0.5000538865596059  0.5018121281717883
  0.5000039584046534  0.4999779879241053  0.4993935437849426
  0.8333496125156676  0.4999822349434798  0.5018057693347643
  0.1667325671682983  0.8333851397465742  0.5001378033711812
  0.5000358185551678  0.8334290241570734  0.5005029759442007
  0.8333396551514527  0.8333101543094635  0.5001067290608202
  0.0000026199193862  0.0000522530793265  0.7942182768568794
  0.3333464627546984  0.0000454224313375  0.7942052726248859
  0.6666534697463277  0.9999539028446950  0.7942138291793929
  0.9999757897565414  0.3333366423962784  0.7940312523126040
  0.3333645546215887  0.3326777695664890  0.7939730240039303
  0.6666095048372266  0.3326877753206898  0.7939637591083019
  0.9999751730129764  0.6666760792407761  0.7940363622063149
  0.3333586665602992  0.6673146167408226  0.7939563270819260
  0.6666142689472007  0.6673152624454536  0.7939591934006426
  0.1668730366848163  0.1671948803201735  0.2940006740180967
  0.5000022829220265  0.1663316046255705  0.2943313271825366
  0.8331263202063330  0.1671212070343873  0.2940044916335177
  0.1640243255959511  0.5000145267335235  0.2964746666093942
  0.8360035842781189  0.4999987196741000  0.2964721119213847
  0.1668947897306104  0.8328313181222819  0.2940052752985407
  0.5000063178545399  0.8336539913925690  0.2943279583644464
  0.8331457010442757  0.8328590986662588  0.2939811781599576
  0.9999904760417717  0.1664835394933568  0.0442740403097614
  0.3331603857820684  0.1666323261930980  0.0443571337674757
  0.6668377886200166  0.1666241818942775  0.0443304869960553
  0.9999958917210955  0.4999995758044198  0.0442905607245115
  0.3288974638153717  0.5000021502176401  0.0404556392583080
  0.6710398646008212  0.4999907217244445  0.0404746929421481
  0.0000020571879177  0.8335166317889194  0.0442676646678043
  0.3331654235446386  0.8333840113827874  0.0443372568181947
  0.6668265721453229  0.8333552075291094  0.0443353569738777
  0.1666915498207090  0.0000236409829775  0.5439642421747108
  0.5000156152209270  0.9999896298871648  0.5442273809245144
  0.8333245707285574  0.9999906520708429  0.5439785254801822
  0.1669227767275068  0.3331468851589051  0.5449613127245724
  0.4999903112432107  0.3337222621396970  0.5434531020537886
  0.8331259910351386  0.3331040330766266  0.5449417955234209
  0.1668746208550977  0.6669079045612554  0.5449756163262887
  0.5000093466664542  0.6662560274806625  0.5434416426733016
  0.8331014730989513  0.6668845608871067  0.5449325558735997
  0.1666505803244211  0.9999995744621181  0.9559769378527171
  0.4999975741639218  0.9999977477391978  0.9560691793827646
  0.8333507330898424  0.9999820983100411  0.9559958583423652
  0.1664687446660025  0.3321228897136522  0.9560682911588884
  0.4999843335176188  0.3338485689066060  0.9559205008010266
  0.8334962009578947  0.3321489256580909  0.9560466471541152
  0.1664690386197370  0.6678713170955796  0.9560617629607998
  0.4999847968691575  0.6661411617492444  0.9559056587411310
  0.8335000753113103  0.6678443632493565  0.9560589579957575
  0.0000004364052484  0.1667295402128339  0.4558396263926605
  0.3333814938820958  0.1666533630664223  0.4560795382355378
  0.6666199265883063  0.1666624073661974  0.4560715480313478
  0.0000121369125235  0.5000047850628762  0.4591553026781767
  0.3328452299837475  0.5000234357343311  0.4553307320131693
  0.6671629203014938  0.4999799055954678  0.4553429938210754
  0.0000178958712572  0.8332799866743748  0.4558257530774121
  0.3333936603017311  0.8333383225346416  0.4560815948165646
  0.6666360250277331  0.8333401302404071  0.4560600891068333
  0.1665384634417639  0.1664235234882862  0.7060398121961499
  0.5000017001789470  0.1667337704179722  0.7059121705678976
  0.8334185706628715  0.1663953544298454  0.7060594658489753
  0.1669406555739368  0.5000096818337437  0.7076805195276726
  0.4999866089116403  0.4999889418013001  0.7083689206850062
  0.8330453038776828  0.5000020808748878  0.7076455906294066
  0.1665487806362506  0.8336158482096536  0.7060646763336664
  0.4999849549559328  0.8332428649909710  0.7059076785051444
  0.8334721532045087  0.8335927005317568  0.7060390804537472
  0.0000779820264924  0.0000030725511178  0.2063149195813184
  0.3334411471664686  0.0000016687230111  0.2061810920180066
  0.6665281259120724  0.9999934896578728  0.2061617327500037
  0.9999848648568838  0.3331691208008074  0.2058407516655577
  0.3353450911205856  0.3335979236962259  0.2060581409686658
  0.6646947242721480  0.3335781697678102  0.2060556931699551
  0.0000087078797827  0.6668308826413950  0.2058403833901952
  0.3353578024834374  0.6664185652905563  0.2060217555023564
  0.6647026125317872  0.6664002455830768  0.2060602336388973
  0.5000090407523663  0.4999887730652596  0.2831885372583069
 
  0.00000000E+00  0.00000000E+00  0.00000000E+00
  0.00000000E+00  0.00000000E+00  0.00000000E+00
  0.00000000E+00  0.00000000E+00  0.00000000E+00
  0.00000000E+00  0.00000000E+00  0.00000000E+00
  0.00000000E+00  0.00000000E+00  0.00000000E+00
  0.00000000E+00  0.00000000E+00  0.00000000E+00
  0.00000000E+00  0.00000000E+00  0.00000000E+00
  0.00000000E+00  0.00000000E+00  0.00000000E+00
  0.00000000E+00  0.00000000E+00  0.00000000E+00
  0.00000000E+00  0.00000000E+00  0.00000000E+00
  0.00000000E+00  0.00000000E+00  0.00000000E+00
  0.00000000E+00  0.00000000E+00  0.00000000E+00
  0.00000000E+00  0.00000000E+00  0.00000000E+00
  0.00000000E+00  0.00000000E+00  0.00000000E+00
  0.00000000E+00  0.00000000E+00  0.00000000E+00
  0.00000000E+00  0.00000000E+00  0.00000000E+00
  0.00000000E+00  0.00000000E+00  0.00000000E+00
  0.00000000E+00  0.00000000E+00  0.00000000E+00
  0.00000000E+00  0.00000000E+00  0.00000000E+00
  0.00000000E+00  0.00000000E+00  0.00000000E+00
  0.00000000E+00  0.00000000E+00  0.00000000E+00
  0.00000000E+00  0.00000000E+00  0.00000000E+00
  0.00000000E+00  0.00000000E+00  0.00000000E+00
  0.00000000E+00  0.00000000E+00  0.00000000E+00
  0.00000000E+00  0.00000000E+00  0.00000000E+00
  0.00000000E+00  0.00000000E+00  0.00000000E+00
  0.00000000E+00  0.00000000E+00  0.00000000E+00
  0.00000000E+00  0.00000000E+00  0.00000000E+00
  0.00000000E+00  0.00000000E+00  0.00000000E+00
  0.00000000E+00  0.00000000E+00  0.00000000E+00
  0.00000000E+00  0.00000000E+00  0.00000000E+00
  0.00000000E+00  0.00000000E+00  0.00000000E+00
  0.00000000E+00  0.00000000E+00  0.00000000E+00
  0.00000000E+00  0.00000000E+00  0.00000000E+00
  0.00000000E+00  0.00000000E+00  0.00000000E+00
  0.00000000E+00  0.00000000E+00  0.00000000E+00
  0.00000000E+00  0.00000000E+00  0.00000000E+00
  0.00000000E+00  0.00000000E+00  0.00000000E+00
  0.00000000E+00  0.00000000E+00  0.00000000E+00
  0.00000000E+00  0.00000000E+00  0.00000000E+00
  0.00000000E+00  0.00000000E+00  0.00000000E+00
  0.00000000E+00  0.00000000E+00  0.00000000E+00
  0.00000000E+00  0.00000000E+00  0.00000000E+00
  0.00000000E+00  0.00000000E+00  0.00000000E+00
  0.00000000E+00  0.00000000E+00  0.00000000E+00
  0.00000000E+00  0.00000000E+00  0.00000000E+00
  0.00000000E+00  0.00000000E+00  0.00000000E+00
  0.00000000E+00  0.00000000E+00  0.00000000E+00
  0.00000000E+00  0.00000000E+00  0.00000000E+00
  0.00000000E+00  0.00000000E+00  0.00000000E+00
  0.00000000E+00  0.00000000E+00  0.00000000E+00
  0.00000000E+00  0.00000000E+00  0.00000000E+00
  0.00000000E+00  0.00000000E+00  0.00000000E+00
  0.00000000E+00  0.00000000E+00  0.00000000E+00
  0.00000000E+00  0.00000000E+00  0.00000000E+00
  0.00000000E+00  0.00000000E+00  0.00000000E+00
  0.00000000E+00  0.00000000E+00  0.00000000E+00
  0.00000000E+00  0.00000000E+00  0.00000000E+00
  0.00000000E+00  0.00000000E+00  0.00000000E+00
  0.00000000E+00  0.00000000E+00  0.00000000E+00
  0.00000000E+00  0.00000000E+00  0.00000000E+00
  0.00000000E+00  0.00000000E+00  0.00000000E+00
  0.00000000E+00  0.00000000E+00  0.00000000E+00
  0.00000000E+00  0.00000000E+00  0.00000000E+00
  0.00000000E+00  0.00000000E+00  0.00000000E+00
  0.00000000E+00  0.00000000E+00  0.00000000E+00
  0.00000000E+00  0.00000000E+00  0.00000000E+00
  0.00000000E+00  0.00000000E+00  0.00000000E+00
  0.00000000E+00  0.00000000E+00  0.00000000E+00
  0.00000000E+00  0.00000000E+00  0.00000000E+00
  0.00000000E+00  0.00000000E+00  0.00000000E+00
  0.00000000E+00  0.00000000E+00  0.00000000E+00
  0.00000000E+00  0.00000000E+00  0.00000000E+00
  0.00000000E+00  0.00000000E+00  0.00000000E+00
  0.00000000E+00  0.00000000E+00  0.00000000E+00
  0.00000000E+00  0.00000000E+00  0.00000000E+00
  0.00000000E+00  0.00000000E+00  0.00000000E+00
  0.00000000E+00  0.00000000E+00  0.00000000E+00
  0.00000000E+00  0.00000000E+00  0.00000000E+00
  0.00000000E+00  0.00000000E+00  0.00000000E+00
  0.00000000E+00  0.00000000E+00  0.00000000E+00
  0.00000000E+00  0.00000000E+00  0.00000000E+00
  0.00000000E+00  0.00000000E+00  0.00000000E+00
  0.00000000E+00  0.00000000E+00  0.00000000E+00
  0.00000000E+00  0.00000000E+00  0.00000000E+00
  0.00000000E+00  0.00000000E+00  0.00000000E+00
  0.00000000E+00  0.00000000E+00  0.00000000E+00
  0.00000000E+00  0.00000000E+00  0.00000000E+00
  0.00000000E+00  0.00000000E+00  0.00000000E+00
  0.00000000E+00  0.00000000E+00  0.00000000E+00
  0.00000000E+00  0.00000000E+00  0.00000000E+00
  0.00000000E+00  0.00000000E+00  0.00000000E+00
  0.00000000E+00  0.00000000E+00  0.00000000E+00
  0.00000000E+00  0.00000000E+00  0.00000000E+00
  0.00000000E+00  0.00000000E+00  0.00000000E+00
  0.00000000E+00  0.00000000E+00  0.00000000E+00
  0.00000000E+00  0.00000000E+00  0.00000000E+00
  0.00000000E+00  0.00000000E+00  0.00000000E+00
  0.00000000E+00  0.00000000E+00  0.00000000E+00
  0.00000000E+00  0.00000000E+00  0.00000000E+00
  0.00000000E+00  0.00000000E+00  0.00000000E+00
  0.00000000E+00  0.00000000E+00  0.00000000E+00
  0.00000000E+00  0.00000000E+00  0.00000000E+00
  0.00000000E+00  0.00000000E+00  0.00000000E+00
  0.00000000E+00  0.00000000E+00  0.00000000E+00
  0.00000000E+00  0.00000000E+00  0.00000000E+00
  0.00000000E+00  0.00000000E+00  0.00000000E+00
  0.00000000E+00  0.00000000E+00  0.00000000E+00
