CIF file                                
   1.00000000000000     
    11.3519997597000071    0.0000000000000000    0.0000000000000000
     0.0000000000000000   11.3519997597000071    0.0000000000000000
     0.0000000000000000    0.0000000000000000    9.6265001297000055
   Ti   O    N 
    36    71     1
Direct
  0.1662604204477610 -0.0000028881139763  0.7503141790369512
  0.5000010815081284  0.9999803309854340  0.7520976137112800
  0.8337417104331670 -0.0000018627598717  0.7503149859917441
  0.1662392167347882  0.3322336273529657  0.7502336020416456
  0.5000004050714870  0.3290166965877431  0.7522818072633122
  0.8337575924486215  0.3322333986817524  0.7502286992578218
  0.1662424571354555  0.6677648688387907  0.7502297497679014
  0.4999998587841099  0.6709401929691262  0.7522844044239653
  0.8337568545913361  0.6677657819226858  0.7502253290613634
  0.0000014967046592  0.1666342833905340  0.2503746708970505
  0.3332852868788416  0.1659819336776350  0.2506066487963896
  0.6667191368207331  0.1659763974677001  0.2506024727428837
  0.0000013486065073  0.5000073276930430  0.2500522733287642
  0.3209543112352450  0.5000067607651987  0.2427945020483880
  0.6790488982412142  0.5000005072714724  0.2427761164051058
  0.9999971442424398  0.8333822679229280  0.2503726563093009
  0.3332783160073700  0.8340294309335279  0.2505938439619944
  0.6667139019054447  0.8340259830335659  0.2505908259553836
  1.0000018177484329  0.0000065088232732  0.0007961440972574
  0.3327228038057787  0.0000115470597865  0.9997887127627731
  0.6672749253193938  0.0000071681968887  0.9997835825084896
  0.0000051549912182  0.3328106599641182  0.0002882353511475
  0.3328744354140990  0.3319487279184281  0.9986709397519491
  0.6671370173244566  0.3319430119158939  0.9986650086588008
  1.0000006407566358  0.6672081850474556  0.0002862247540261
  0.3328650101631080  0.6680627252467971  0.9986626557447890
  0.6671366012754265  0.6680623974229279  0.9986578502448941
  0.1666691019011071  0.1663391476713951  0.4998917153589883
  0.5000008473231865  0.1656733188806750  0.4997318330944191
  0.8333299962712871  0.1663424787785562  0.4998914067397222
  0.1667381378061567  0.4999960013565691  0.5043427614331207
  0.5000004703823614  0.4999985207602666  0.5148525591301437
  0.8332574015764305  0.4999986071478236  0.5043393159519933
  0.1666680435978661  0.8336506942407814  0.4998886782596300
  0.4999965058631096  0.8343273976707405  0.4997213119726341
  0.8333244942332723  0.8336559447653029  0.4998841098505448
  1.0000002981094389  0.9999884388814991  0.7948451792809429
  0.3330560722378520  0.9999894286981372  0.7944662506071103
  0.6669441570755572 -0.0000017856767027  0.7944649998335256
  0.0000025075365763  0.3342159738570312  0.7933977869657629
  0.3334636756658306  0.3321943881160501  0.7941472833905731
  0.6665389602238909  0.3321966680536159  0.7941394135437893
  0.9999995817527900  0.6657881047772356  0.7933961255965648
  0.3334610247770272  0.6677962721407370  0.7941389664589716
  0.6665396923750975  0.6677885686117137  0.7941374689828125
  0.1668852648030778  0.1673476184416847  0.2940516011857687
  0.5000011886841794  0.1667318617895518  0.2946399826730256
  0.8331160207680662  0.1673435894744389  0.2940499025887068
  0.1627664967559208  0.5000087855500261  0.2983453264380665
  0.8372348927242130  0.5000055218872602  0.2983432342014355
  0.1668819344519415  0.8326688287385439  0.2940481064942641
  0.4999969586301164  0.8332795711174119  0.2946242578349753
  0.8331137816902829  0.8326743865023618  0.2940393005023961
  0.9999940753784446  0.1666236893500418  0.0447471460114551
  0.3331143273601622  0.1665482048233007  0.0444766641594422
  0.6668963806075877  0.1665443789679959  0.0444713975094860
  0.0000015590428912  0.5000064273539816  0.0453366879960907
  0.3282639862816771  0.5000064350121114  0.0398001245349550
  0.6717426722673555  0.5000004580693621  0.0397925233287037
  0.0000068242716151  0.8333901419637219  0.0447388247784768
  0.3330877377689128  0.8334643633269428  0.0444662365220891
  0.6668989332114447  0.8334627064798021  0.0444618396870391
  0.1664823357006234  0.9999958659054371  0.5439376416768688
  0.5000005616876116  0.9999841341641599  0.5451473686344256
  0.8335129657157275 -0.0000023719873725  0.5439372357663054
  0.1689692947809472  0.3335497983960111  0.5444069126038140
  0.4999979779452732  0.3324398972549187  0.5462333105745523
  0.8310299623901184  0.3335510423441656  0.5444019119450325
  0.1689554029219391  0.6664457168605697  0.5444088651789359
  0.4999988754569897  0.6675402890976850  0.5462278694669509
  0.8310395541263197  0.6664471219865385  0.5444022149274214
  0.1665497403648538  0.0000163285530949  0.9562360881357560
  0.4999987466966767 -0.0000019033690223  0.9565424807324311
  0.8334507089309044  0.0000062759745016  0.9562348652975157
  0.1662955372813667  0.3320505525295598  0.9558252267227156
  0.5000033742150846  0.3341352820600367  0.9570577695659460
  0.8337103423964017  0.3320530096871933  0.9558182781964918
  0.1662917156834476  0.6679481675574119  0.9558216972117780
  0.4999996696777481  0.6658702431652244  0.9570561187786862
  0.8337084890174522  0.6679541617044538  0.9558199880657434
  0.0000001222217041  0.1677099467169760  0.4561855044877521
  0.3334950212591629  0.1662503440000744  0.4561054240832837
  0.6665066045532468  0.1662522456130847  0.4561023153229851
  0.0000001526567518  0.4999953600208298  0.4623490610447746
  0.3395477716787983  0.4999969149425182  0.4487027556069208
  0.6604521835174665  0.4999961312398821  0.4486992281829929
  0.9999966198500835  0.8322859744640219  0.4561754410997566
  0.3334917373253519  0.8337227058693460  0.4560956921634982
  0.6665037975924064  0.8337207732581373  0.4560876739108867
  0.1660508731647388  0.1665206003524543  0.7058706131516700
  0.4999988954634391  0.1658325767336019  0.7076794735500287
  0.8339542255368675  0.1665214556837747  0.7058714274584837
  0.1682770602432025  0.4999978110461125  0.7071168671511775
  0.4999991718920596  0.4999896250130955  0.7093248149598416
  0.8317268892202052  0.4999988644716171  0.7071124413549962
  0.1660503521425910  0.8334754170762894  0.7058709399129229
  0.5000055897931219  0.8341410996678998  0.7076724040685927
  0.8339437332165480  0.8334763669280397  0.7058672328372203
  0.0000012839806121  0.0000066978184266  0.2071137942520106
  0.3333897442420974  0.0000057995471425  0.2064804522144266
  0.6665974349806622  0.0000033123590554  0.2064744112194550
  0.0000013336714565  0.3336127676857770  0.2060916509896471
  0.3350806661190123  0.3338284933604775  0.2057253839857118
  0.6649199015262692  0.3338242086530793  0.2057190378498759
  0.9999953773234256  0.6664011454441635  0.2060864744419633
  0.3350810557092840  0.6661813835907305  0.2057133194214954
  0.6649224370714796  0.6661787799512475  0.2057078983023028
  0.5000028610558018  0.5000084788121543  0.2597983657214011
 
  0.00000000E+00  0.00000000E+00  0.00000000E+00
  0.00000000E+00  0.00000000E+00  0.00000000E+00
  0.00000000E+00  0.00000000E+00  0.00000000E+00
  0.00000000E+00  0.00000000E+00  0.00000000E+00
  0.00000000E+00  0.00000000E+00  0.00000000E+00
  0.00000000E+00  0.00000000E+00  0.00000000E+00
  0.00000000E+00  0.00000000E+00  0.00000000E+00
  0.00000000E+00  0.00000000E+00  0.00000000E+00
  0.00000000E+00  0.00000000E+00  0.00000000E+00
  0.00000000E+00  0.00000000E+00  0.00000000E+00
  0.00000000E+00  0.00000000E+00  0.00000000E+00
  0.00000000E+00  0.00000000E+00  0.00000000E+00
  0.00000000E+00  0.00000000E+00  0.00000000E+00
  0.00000000E+00  0.00000000E+00  0.00000000E+00
  0.00000000E+00  0.00000000E+00  0.00000000E+00
  0.00000000E+00  0.00000000E+00  0.00000000E+00
  0.00000000E+00  0.00000000E+00  0.00000000E+00
  0.00000000E+00  0.00000000E+00  0.00000000E+00
  0.00000000E+00  0.00000000E+00  0.00000000E+00
  0.00000000E+00  0.00000000E+00  0.00000000E+00
  0.00000000E+00  0.00000000E+00  0.00000000E+00
  0.00000000E+00  0.00000000E+00  0.00000000E+00
  0.00000000E+00  0.00000000E+00  0.00000000E+00
  0.00000000E+00  0.00000000E+00  0.00000000E+00
  0.00000000E+00  0.00000000E+00  0.00000000E+00
  0.00000000E+00  0.00000000E+00  0.00000000E+00
  0.00000000E+00  0.00000000E+00  0.00000000E+00
  0.00000000E+00  0.00000000E+00  0.00000000E+00
  0.00000000E+00  0.00000000E+00  0.00000000E+00
  0.00000000E+00  0.00000000E+00  0.00000000E+00
  0.00000000E+00  0.00000000E+00  0.00000000E+00
  0.00000000E+00  0.00000000E+00  0.00000000E+00
  0.00000000E+00  0.00000000E+00  0.00000000E+00
  0.00000000E+00  0.00000000E+00  0.00000000E+00
  0.00000000E+00  0.00000000E+00  0.00000000E+00
  0.00000000E+00  0.00000000E+00  0.00000000E+00
  0.00000000E+00  0.00000000E+00  0.00000000E+00
  0.00000000E+00  0.00000000E+00  0.00000000E+00
  0.00000000E+00  0.00000000E+00  0.00000000E+00
  0.00000000E+00  0.00000000E+00  0.00000000E+00
  0.00000000E+00  0.00000000E+00  0.00000000E+00
  0.00000000E+00  0.00000000E+00  0.00000000E+00
  0.00000000E+00  0.00000000E+00  0.00000000E+00
  0.00000000E+00  0.00000000E+00  0.00000000E+00
  0.00000000E+00  0.00000000E+00  0.00000000E+00
  0.00000000E+00  0.00000000E+00  0.00000000E+00
  0.00000000E+00  0.00000000E+00  0.00000000E+00
  0.00000000E+00  0.00000000E+00  0.00000000E+00
  0.00000000E+00  0.00000000E+00  0.00000000E+00
  0.00000000E+00  0.00000000E+00  0.00000000E+00
  0.00000000E+00  0.00000000E+00  0.00000000E+00
  0.00000000E+00  0.00000000E+00  0.00000000E+00
  0.00000000E+00  0.00000000E+00  0.00000000E+00
  0.00000000E+00  0.00000000E+00  0.00000000E+00
  0.00000000E+00  0.00000000E+00  0.00000000E+00
  0.00000000E+00  0.00000000E+00  0.00000000E+00
  0.00000000E+00  0.00000000E+00  0.00000000E+00
  0.00000000E+00  0.00000000E+00  0.00000000E+00
  0.00000000E+00  0.00000000E+00  0.00000000E+00
  0.00000000E+00  0.00000000E+00  0.00000000E+00
  0.00000000E+00  0.00000000E+00  0.00000000E+00
  0.00000000E+00  0.00000000E+00  0.00000000E+00
  0.00000000E+00  0.00000000E+00  0.00000000E+00
  0.00000000E+00  0.00000000E+00  0.00000000E+00
  0.00000000E+00  0.00000000E+00  0.00000000E+00
  0.00000000E+00  0.00000000E+00  0.00000000E+00
  0.00000000E+00  0.00000000E+00  0.00000000E+00
  0.00000000E+00  0.00000000E+00  0.00000000E+00
  0.00000000E+00  0.00000000E+00  0.00000000E+00
  0.00000000E+00  0.00000000E+00  0.00000000E+00
  0.00000000E+00  0.00000000E+00  0.00000000E+00
  0.00000000E+00  0.00000000E+00  0.00000000E+00
  0.00000000E+00  0.00000000E+00  0.00000000E+00
  0.00000000E+00  0.00000000E+00  0.00000000E+00
  0.00000000E+00  0.00000000E+00  0.00000000E+00
  0.00000000E+00  0.00000000E+00  0.00000000E+00
  0.00000000E+00  0.00000000E+00  0.00000000E+00
  0.00000000E+00  0.00000000E+00  0.00000000E+00
  0.00000000E+00  0.00000000E+00  0.00000000E+00
  0.00000000E+00  0.00000000E+00  0.00000000E+00
  0.00000000E+00  0.00000000E+00  0.00000000E+00
  0.00000000E+00  0.00000000E+00  0.00000000E+00
  0.00000000E+00  0.00000000E+00  0.00000000E+00
  0.00000000E+00  0.00000000E+00  0.00000000E+00
  0.00000000E+00  0.00000000E+00  0.00000000E+00
  0.00000000E+00  0.00000000E+00  0.00000000E+00
  0.00000000E+00  0.00000000E+00  0.00000000E+00
  0.00000000E+00  0.00000000E+00  0.00000000E+00
  0.00000000E+00  0.00000000E+00  0.00000000E+00
  0.00000000E+00  0.00000000E+00  0.00000000E+00
  0.00000000E+00  0.00000000E+00  0.00000000E+00
  0.00000000E+00  0.00000000E+00  0.00000000E+00
  0.00000000E+00  0.00000000E+00  0.00000000E+00
  0.00000000E+00  0.00000000E+00  0.00000000E+00
  0.00000000E+00  0.00000000E+00  0.00000000E+00
  0.00000000E+00  0.00000000E+00  0.00000000E+00
  0.00000000E+00  0.00000000E+00  0.00000000E+00
  0.00000000E+00  0.00000000E+00  0.00000000E+00
  0.00000000E+00  0.00000000E+00  0.00000000E+00
  0.00000000E+00  0.00000000E+00  0.00000000E+00
  0.00000000E+00  0.00000000E+00  0.00000000E+00
  0.00000000E+00  0.00000000E+00  0.00000000E+00
  0.00000000E+00  0.00000000E+00  0.00000000E+00
  0.00000000E+00  0.00000000E+00  0.00000000E+00
  0.00000000E+00  0.00000000E+00  0.00000000E+00
  0.00000000E+00  0.00000000E+00  0.00000000E+00
  0.00000000E+00  0.00000000E+00  0.00000000E+00
  0.00000000E+00  0.00000000E+00  0.00000000E+00
