CIF file                                
   1.00000000000000     
    11.3519997597000071    0.0000000000000000    0.0000000000000000
     0.0000000000000000   11.3519997597000071    0.0000000000000000
     0.0000000000000000    0.0000000000000000    9.6265001297000055
   Ti   O    Nb
    35    72     1
Direct
  0.1664270110896204  0.9999968841623482  0.7496687065995230
  0.5000006769214802  0.9999983624706898  0.7543797143644737
  0.8335794284501032  0.0000060819506097  0.7496682969922996
  0.1662231174647913  0.3332140480212208  0.7488429525815944
  0.4999963721353478  0.3303213714441610  0.7572736997284486
  0.8337847709729864  0.3332295956741191  0.7488667703797732
  0.1662000214380563  0.6667739605368402  0.7488766148196234
  0.4999870518362012  0.6696741919356308  0.7572711694311796
  0.8337664681159150  0.6667929951879704  0.7488467551739127
  0.0000068881417530  0.1664210807242701  0.2503367493854277
  0.3332287868889857  0.1662011069673844  0.2511327674551172
  0.6667928303672764  0.1662274243502830  0.2511555799834090
  0.0000026880121478  0.4999970095521712  0.2456176080125307
  0.3303139897953713  0.4999874890090517  0.2427173993900819
  0.6696891363674430  0.4999972992046343  0.2427181857996268
  0.9999980972518483  0.8335802996781080  0.2503352889550938
  0.3332158084306935  0.8337672502971099  0.2511579387018346
  0.6667675047991761  0.8337858018739979  0.2511296448437012
  0.9999987288303210  1.0000008169940973  0.0000032271201929
  0.3321946869411959  0.9999621493244581  0.0003787970171839
  0.6678055505428854  0.0000265880708681  0.0003811797973545
  0.0000240078265210  0.3321925726236356  0.9996213085020474
  0.3314792710843051  0.3314310578280650  0.0000023266886557
  0.6685553396727282  0.3314860908405113  0.9999937323624744
  0.9999604531648406  0.6678069842015830  0.9996279765047942
  0.3314322223399606  0.6685052152900364  0.0000066540826880
  0.6685026004429524  0.6685525652259761  0.0000021381468712
  0.1665642319490042  0.1664879354219968  0.4999879283024526
  0.5000371251985629  0.1640944062446747  0.5008938667940549
  0.8335244520590912  0.1665666133241348  0.5000179594230972
  0.1640978041974707  0.4999804194665441  0.4991104611060894
  0.8359185628208431  0.5000377862029401  0.4991081834035042
  0.1664898560605393  0.8334510691595628  0.5000152924651292
  0.4999795002123888  0.8359063715855284  0.5008975900390771
  0.8334472142012803  0.8335246687086109  0.4999824885538103
  0.9999985519353844  0.0000030477918638  0.7932586225757144
  0.3330979399240919  0.9999806331997232  0.7948463173822575
  0.6669016850002348  0.0000192722191044  0.7948465473876084
  0.0000116404393890  0.3333994924198180  0.7924064309146993
  0.3331190959930662  0.3329218506631838  0.7943548340536217
  0.6668909771946399  0.3329587266541794  0.7943384650540676
  0.9999801401649784  0.6666106696812824  0.7924124861007843
  0.3330965693866558  0.6670713239836296  0.7943546018392056
  0.6668689026037533  0.6670568482931695  0.7943512512299640
  0.1668287076245150  0.1669787666488579  0.2940413271707180
  0.5000189113116593  0.1672453216477942  0.2953823531957785
  0.8331983659321589  0.1670253302181932  0.2940800561304431
  0.1662611687392687  0.4999968104303432  0.2912425697422581
  0.5000049929776184  0.4999737864035433  0.2890797675852502
  0.8337395990224278  0.5000039338290276  0.2912459358891281
  0.1668107920386781  0.8329676245483393  0.2940779217804593
  0.4999872753208412  0.8327572962573898  0.2953861717108585
  0.8331742260579809  0.8330087291125940  0.2940310868187578
  0.9999949709413735  0.1663269792492866  0.0438702082335152
  0.3324612732643156  0.1661210914254470  0.0444667851677423
  0.6675753017640825  0.1661559793438341  0.0444728693926721
  0.9999940030750727  0.4999987340941756  0.0419404347716903
  0.3316698028799294  0.4999805112607378  0.0410052913861793
  0.6683259789491846  0.5000112836798364  0.0410106216086670
  0.0000016874959201  0.8336736163089634  0.0438675691541260
  0.3324203909997629  0.8338385932444662  0.0444835582697156
  0.6675386400205351  0.8338681189392902  0.0444667245022621
  0.1671711438652851  0.9999803615476234  0.5436191696948814
  0.5000080985568763  0.0000012999472990  0.5456183685081325
  0.8328434375843121  0.0000282963267906  0.5436230798785024
  0.1672966561271179  0.3336716774150488  0.5427164531422043
  0.4999768169592370  0.3325353939822248  0.5472646503417450
  0.8327941761969402  0.3337050075275095  0.5427581641859321
  0.1672029901770335  0.6663071799623428  0.5427662332585582
  0.5000463096341157  0.6674626240668743  0.5472601004584405
  0.8327118484034851  0.6663375666030071  0.5427115144417894
  0.1663260903105870  0.0000027765656090  0.9561343362340202
  0.4999998704542343  0.9999949796266012  0.9580611788754483
  0.8336730977119216  0.9999956962443766  0.9561360806470230
  0.1661519940164994  0.3324207296261404  0.9555235709332142
  0.5000110452172694  0.3316699380149569  0.9589884376690714
  0.8338690232970336  0.3324587930092104  0.9555291170341724
  0.1661213611588619  0.6675375394348672  0.9555432189099020
  0.4999811861470917  0.6683251896886085  0.9589907290606674
  0.8338365081047193  0.6675766646451067  0.9555227357997730
  0.0000267699011429  0.1671712326722306  0.4563880268710149
  0.3337049499382942  0.1672083810367374  0.4572418119749723
  0.6663373487184473  0.1673013929451308  0.4572813041942379
  0.0000028800092363  0.5000038638994279  0.4543824459067469
  0.3325332267444624  0.5000418677727947  0.4527129413703973
  0.6674717884073458  0.4999722993363394  0.4527250583172285
  0.9999798534672188  0.8328470831528831  0.4563774831400953
  0.3336715486021686  0.8327079563992741  0.4572895251451785
  0.6663060244008624  0.8327972847035103  0.4572383071820416
  0.1670220023221763  0.1668082717878198  0.7059243094189771
  0.5000054142123236  0.1662649566098153  0.7087528396522477
  0.8330078873606815  0.1668313704015549  0.7059686954882819
  0.1672426264788060  0.4999885918632487  0.7046200308225018
  0.4999746308467359  0.5000001076563739  0.7109035846521187
  0.8327573771811504  0.5000203715946927  0.7046108879987424
  0.1669804470263765  0.8331780881127402  0.7059666579358059
  0.4999967307452095  0.8337337765127485  0.7087507555976907
  0.8329670152058507  0.8331952890515201  0.7059218816371560
  0.0000016662316735  0.9999998065869375  0.2067460027728373
  0.3333985589781034  0.9999810316694594  0.2075959119784725
  0.6666080971140732  0.0000137004169005  0.2075932778546440
  0.0000198271600989  0.3330964165939672  0.2051567555247305
  0.3329332458877216  0.3330976194482314  0.2056525464993982
  0.6670774885271354  0.3331221262518411  0.2056426353904108
  0.9999778785718438  0.6669011215622356  0.2051596095551342
  0.3329463725037919  0.6668689835447514  0.2056522117076477
  0.6670461168307185  0.6668893000057907  0.2056581458781567
  0.5000167256223198  0.5000060590745361  0.4999714545044170
 
  0.00000000E+00  0.00000000E+00  0.00000000E+00
  0.00000000E+00  0.00000000E+00  0.00000000E+00
  0.00000000E+00  0.00000000E+00  0.00000000E+00
  0.00000000E+00  0.00000000E+00  0.00000000E+00
  0.00000000E+00  0.00000000E+00  0.00000000E+00
  0.00000000E+00  0.00000000E+00  0.00000000E+00
  0.00000000E+00  0.00000000E+00  0.00000000E+00
  0.00000000E+00  0.00000000E+00  0.00000000E+00
  0.00000000E+00  0.00000000E+00  0.00000000E+00
  0.00000000E+00  0.00000000E+00  0.00000000E+00
  0.00000000E+00  0.00000000E+00  0.00000000E+00
  0.00000000E+00  0.00000000E+00  0.00000000E+00
  0.00000000E+00  0.00000000E+00  0.00000000E+00
  0.00000000E+00  0.00000000E+00  0.00000000E+00
  0.00000000E+00  0.00000000E+00  0.00000000E+00
  0.00000000E+00  0.00000000E+00  0.00000000E+00
  0.00000000E+00  0.00000000E+00  0.00000000E+00
  0.00000000E+00  0.00000000E+00  0.00000000E+00
  0.00000000E+00  0.00000000E+00  0.00000000E+00
  0.00000000E+00  0.00000000E+00  0.00000000E+00
  0.00000000E+00  0.00000000E+00  0.00000000E+00
  0.00000000E+00  0.00000000E+00  0.00000000E+00
  0.00000000E+00  0.00000000E+00  0.00000000E+00
  0.00000000E+00  0.00000000E+00  0.00000000E+00
  0.00000000E+00  0.00000000E+00  0.00000000E+00
  0.00000000E+00  0.00000000E+00  0.00000000E+00
  0.00000000E+00  0.00000000E+00  0.00000000E+00
  0.00000000E+00  0.00000000E+00  0.00000000E+00
  0.00000000E+00  0.00000000E+00  0.00000000E+00
  0.00000000E+00  0.00000000E+00  0.00000000E+00
  0.00000000E+00  0.00000000E+00  0.00000000E+00
  0.00000000E+00  0.00000000E+00  0.00000000E+00
  0.00000000E+00  0.00000000E+00  0.00000000E+00
  0.00000000E+00  0.00000000E+00  0.00000000E+00
  0.00000000E+00  0.00000000E+00  0.00000000E+00
  0.00000000E+00  0.00000000E+00  0.00000000E+00
  0.00000000E+00  0.00000000E+00  0.00000000E+00
  0.00000000E+00  0.00000000E+00  0.00000000E+00
  0.00000000E+00  0.00000000E+00  0.00000000E+00
  0.00000000E+00  0.00000000E+00  0.00000000E+00
  0.00000000E+00  0.00000000E+00  0.00000000E+00
  0.00000000E+00  0.00000000E+00  0.00000000E+00
  0.00000000E+00  0.00000000E+00  0.00000000E+00
  0.00000000E+00  0.00000000E+00  0.00000000E+00
  0.00000000E+00  0.00000000E+00  0.00000000E+00
  0.00000000E+00  0.00000000E+00  0.00000000E+00
  0.00000000E+00  0.00000000E+00  0.00000000E+00
  0.00000000E+00  0.00000000E+00  0.00000000E+00
  0.00000000E+00  0.00000000E+00  0.00000000E+00
  0.00000000E+00  0.00000000E+00  0.00000000E+00
  0.00000000E+00  0.00000000E+00  0.00000000E+00
  0.00000000E+00  0.00000000E+00  0.00000000E+00
  0.00000000E+00  0.00000000E+00  0.00000000E+00
  0.00000000E+00  0.00000000E+00  0.00000000E+00
  0.00000000E+00  0.00000000E+00  0.00000000E+00
  0.00000000E+00  0.00000000E+00  0.00000000E+00
  0.00000000E+00  0.00000000E+00  0.00000000E+00
  0.00000000E+00  0.00000000E+00  0.00000000E+00
  0.00000000E+00  0.00000000E+00  0.00000000E+00
  0.00000000E+00  0.00000000E+00  0.00000000E+00
  0.00000000E+00  0.00000000E+00  0.00000000E+00
  0.00000000E+00  0.00000000E+00  0.00000000E+00
  0.00000000E+00  0.00000000E+00  0.00000000E+00
  0.00000000E+00  0.00000000E+00  0.00000000E+00
  0.00000000E+00  0.00000000E+00  0.00000000E+00
  0.00000000E+00  0.00000000E+00  0.00000000E+00
  0.00000000E+00  0.00000000E+00  0.00000000E+00
  0.00000000E+00  0.00000000E+00  0.00000000E+00
  0.00000000E+00  0.00000000E+00  0.00000000E+00
  0.00000000E+00  0.00000000E+00  0.00000000E+00
  0.00000000E+00  0.00000000E+00  0.00000000E+00
  0.00000000E+00  0.00000000E+00  0.00000000E+00
  0.00000000E+00  0.00000000E+00  0.00000000E+00
  0.00000000E+00  0.00000000E+00  0.00000000E+00
  0.00000000E+00  0.00000000E+00  0.00000000E+00
  0.00000000E+00  0.00000000E+00  0.00000000E+00
  0.00000000E+00  0.00000000E+00  0.00000000E+00
  0.00000000E+00  0.00000000E+00  0.00000000E+00
  0.00000000E+00  0.00000000E+00  0.00000000E+00
  0.00000000E+00  0.00000000E+00  0.00000000E+00
  0.00000000E+00  0.00000000E+00  0.00000000E+00
  0.00000000E+00  0.00000000E+00  0.00000000E+00
  0.00000000E+00  0.00000000E+00  0.00000000E+00
  0.00000000E+00  0.00000000E+00  0.00000000E+00
  0.00000000E+00  0.00000000E+00  0.00000000E+00
  0.00000000E+00  0.00000000E+00  0.00000000E+00
  0.00000000E+00  0.00000000E+00  0.00000000E+00
  0.00000000E+00  0.00000000E+00  0.00000000E+00
  0.00000000E+00  0.00000000E+00  0.00000000E+00
  0.00000000E+00  0.00000000E+00  0.00000000E+00
  0.00000000E+00  0.00000000E+00  0.00000000E+00
  0.00000000E+00  0.00000000E+00  0.00000000E+00
  0.00000000E+00  0.00000000E+00  0.00000000E+00
  0.00000000E+00  0.00000000E+00  0.00000000E+00
  0.00000000E+00  0.00000000E+00  0.00000000E+00
  0.00000000E+00  0.00000000E+00  0.00000000E+00
  0.00000000E+00  0.00000000E+00  0.00000000E+00
  0.00000000E+00  0.00000000E+00  0.00000000E+00
  0.00000000E+00  0.00000000E+00  0.00000000E+00
  0.00000000E+00  0.00000000E+00  0.00000000E+00
  0.00000000E+00  0.00000000E+00  0.00000000E+00
  0.00000000E+00  0.00000000E+00  0.00000000E+00
  0.00000000E+00  0.00000000E+00  0.00000000E+00
  0.00000000E+00  0.00000000E+00  0.00000000E+00
  0.00000000E+00  0.00000000E+00  0.00000000E+00
  0.00000000E+00  0.00000000E+00  0.00000000E+00
  0.00000000E+00  0.00000000E+00  0.00000000E+00
  0.00000000E+00  0.00000000E+00  0.00000000E+00
