CIF file                                
   1.00000000000000     
    11.3519997597000071    0.0000000000000000    0.0000000000000000
     0.0000000000000000   11.3519997597000071    0.0000000000000000
     0.0000000000000000    0.0000000000000000    9.6265001297000055
   Ti   O    Nb
    35    72     1
Direct
  0.1664056487704421  0.0000226883556183  0.7498086145024507
  0.4999867841714903  0.0000118286932873  0.7543724481977824
  0.8335657952653309  0.9999968882119460  0.7498040300172844
  0.1662090764301623  0.3332045960161010  0.7490036767979128
  0.4999937882661725  0.3303312367251505  0.7571269851903579
  0.8337682841590635  0.3332042450988012  0.7490039684327079
  0.1662206657707102  0.6668126684981703  0.7490080071090975
  0.5000028197343140  0.6696819309192235  0.7571140145496653
  0.8337788668681236  0.6668093119734885  0.7490053279677611
  0.9999938399938109  0.1664018848612656  0.2501885331768560
  0.3331994171873720  0.1662158486665625  0.2510029617716504
  0.6668048774862059  0.1662093429794720  0.2510030169569861
  1.0000021520185505  0.4999894976963257  0.2456207614782065
  0.3303119814373775  0.4999963968192769  0.2428723651435200
  0.6696899377225809  0.4999938155951503  0.2428735130970161
  0.0000180410491757  0.8335775159275390  0.2501898770923443
  0.3332012907140938  0.8337736660212481  0.2510000835916270
  0.6668014352971112  0.8337745582662074  0.2509952881974127
  0.9999913900249238  0.9999907787905463  0.9999914296464605
  0.3322134726035392 -0.0000002797153902  0.0004646181469223
  0.6677765830059543  0.9999812237590848  0.0004619247164388
  0.9999791884760139  0.3322121327970886  0.9995410625201723
  0.3315380220730652  0.3315530860764128  0.0000052771592568
  0.6684272064026155  0.3315318871171681  0.9999987433629187
  0.0000056129817791  0.6677802663873709  0.9995403589428945
  0.3315618220483383  0.6684477390708712  0.9999979334233438
  0.6684474520740027  0.6684234339068618  0.0000081382004168
  0.1664283439837942  0.1664496813781308  0.4999875395020135
  0.5000032953570199  0.1639443918150669  0.5005423295897740
  0.8335752454513895  0.1664275832296625  0.5000176886742720
  0.1639422347447613  0.5000205453018899  0.4994651214536126
  0.8360649578385200  0.5000009821057768  0.4994629808219649
  0.1664617348258411  0.8335926840262355  0.5000123022685977
  0.5000272755802266  0.8360548432275280  0.5005487425353220
  0.8336000132526252  0.8335664876854194  0.4999807178909275
  0.9999927267522258  0.9999993412433665  0.7936722249546859
  0.3331450314901511  0.0000206732936790  0.7951544249296547
  0.6668393910419517  0.0000037045859623  0.7951548327211428
  0.9999903479950742  0.3336033432977815  0.7926921322561932
  0.3331731807126589  0.3329559508603779  0.7946625843912402
  0.6668038194532774  0.3329560763034988  0.7946504434243283
  0.0000010212381968  0.6664257681755198  0.7926916855414347
  0.3331887861649069  0.6670573854198629  0.7946554080363620
  0.6668160576245644  0.6670413247317998  0.7946641154603985
  0.1667897718587749  0.1666953566530166  0.2944038902104037
  0.5000043130653666  0.1670714056009983  0.2954782737581771
  0.8332084516095719  0.1666945569088296  0.2944219305508787
  0.1661697882938748  0.4999954515614070  0.2921301573662669
  0.5000022636338231  0.4999856163263416  0.2891306724217092
  0.8338341266341163  0.4999902750405286  0.2921322719239113
  0.1668049475458857  0.8332943992638143  0.2944161247709338
  0.5000058895149267  0.8329163951662159  0.2954803313187025
  0.8332197318798384  0.8332726138675693  0.2943982312701036
  0.9999730941937461  0.1663726272437570  0.0441482474106648
  0.3325661380895054  0.1661823513161761  0.0447505306686895
  0.6674408773349301  0.1661727671975033  0.0447409229052447
  0.9999939071099695  0.4999941788590049  0.0424183597924905
  0.3317958733355596  0.4999942480202186  0.0413175561440300
  0.6682016476783660  0.4999879301375462  0.0413203464142219
  0.0000154674280553  0.8336153225401153  0.0441485775330161
  0.3325559722288818  0.8338137349838771  0.0447446567790557
  0.6674240733788499  0.8338031697086965  0.0447489111737643
  0.1670692703589636  0.0000148292246113  0.5438345856649480
  0.5000039029557363  0.0000041049643353  0.5454144102999555
  0.8329467518208745  1.0000002084947068  0.5438362697495951
  0.1672153821289639  0.3337673952746674  0.5431633731216396
  0.5000012643808670  0.3326270220032436  0.5475032917915255
  0.8327920610109854  0.3337586565622575  0.5431750907018280
  0.1672065348795793  0.6662562998297069  0.5431741907351164
  0.5000255926398366  0.6673846445730037  0.5475089888732058
  0.8327921511577281  0.6662474147869061  0.5431617079703188
  0.1663747650568324  0.0000116210497682  0.9558474530802000
  0.4999931894770244  0.9999944571373103  0.9575834552723400
  0.8336122365916433  0.9999765655936540  0.9558439051399109
  0.1661724924819690  0.3325514216465005  0.9552624914499720
  0.4999903481564913  0.3317990498179025  0.9586815752173696
  0.8338036391511370  0.3325667959238690  0.9552532174243649
  0.1661890123063265  0.6674232120401201  0.9552576100372255
  0.5000013881492850  0.6681854266354801  0.9586816230891949
  0.8338172849891844  0.6674405136699166  0.9552628868904666
  0.0000001026529836  0.1670696602651645  0.4561620439560798
  0.3337566338385100  0.1672213873004760  0.4568341286107826
  0.6662473156251102  0.1672198606765268  0.4568433056266402
  0.0000025359051434  0.5000067069858314  0.4545880485229674
  0.3326165813446118  0.5000251470434418  0.4524805014288892
  0.6673897790301468  0.5000031115362125  0.4524820378022397
  0.0000143957095697  0.8329517644737815  0.4561559553642573
  0.3337678563964638  0.8327837775771786  0.4568419896312362
  0.6662584564902563  0.8328023063336548  0.4568261026208666
  0.1666950483995034  0.1668031568848168  0.7055811580307237
  0.4999898465300745  0.1661803614101681  0.7078644752077887
  0.8332862519844071  0.1667917446776215  0.7055995835381403
  0.1670747568177142  0.5000082250590276  0.7045274313281372
  0.4999850197383421  0.5000045471868808  0.7108396800216806
  0.8329241169192809  0.5000069470443667  0.7045275955396130
  0.1667248080040175  0.8332231895089058  0.7055945440443087
  0.4999993991180444  0.8338336179148608  0.7078724830862749
  0.8332866615818902  0.8332087868859944  0.7055795461473414
  0.9999992456153820  0.9999937509976089  0.2063179761854290
  0.3336030287705005  0.9999965738396249  0.2073135975252759
  0.6664045186378120  0.9999931985738426  0.2073107082555243
  0.9999912695931101  0.3331425231403974  0.2048469101874153
  0.3329448972234121  0.3331818015525314  0.2053528050295967
  0.6670503682100899  0.3331716206901944  0.2053419010096691
  0.0000137219389851  0.6668437496905412  0.2048468212777866
  0.3329628263894872  0.6668111359854553  0.2053436553697126
  0.6670470231579645  0.6668029989872084  0.2053542022844354
  0.5000010163304115  0.5000073519572689  0.4999764596038956
 
  0.00000000E+00  0.00000000E+00  0.00000000E+00
  0.00000000E+00  0.00000000E+00  0.00000000E+00
  0.00000000E+00  0.00000000E+00  0.00000000E+00
  0.00000000E+00  0.00000000E+00  0.00000000E+00
  0.00000000E+00  0.00000000E+00  0.00000000E+00
  0.00000000E+00  0.00000000E+00  0.00000000E+00
  0.00000000E+00  0.00000000E+00  0.00000000E+00
  0.00000000E+00  0.00000000E+00  0.00000000E+00
  0.00000000E+00  0.00000000E+00  0.00000000E+00
  0.00000000E+00  0.00000000E+00  0.00000000E+00
  0.00000000E+00  0.00000000E+00  0.00000000E+00
  0.00000000E+00  0.00000000E+00  0.00000000E+00
  0.00000000E+00  0.00000000E+00  0.00000000E+00
  0.00000000E+00  0.00000000E+00  0.00000000E+00
  0.00000000E+00  0.00000000E+00  0.00000000E+00
  0.00000000E+00  0.00000000E+00  0.00000000E+00
  0.00000000E+00  0.00000000E+00  0.00000000E+00
  0.00000000E+00  0.00000000E+00  0.00000000E+00
  0.00000000E+00  0.00000000E+00  0.00000000E+00
  0.00000000E+00  0.00000000E+00  0.00000000E+00
  0.00000000E+00  0.00000000E+00  0.00000000E+00
  0.00000000E+00  0.00000000E+00  0.00000000E+00
  0.00000000E+00  0.00000000E+00  0.00000000E+00
  0.00000000E+00  0.00000000E+00  0.00000000E+00
  0.00000000E+00  0.00000000E+00  0.00000000E+00
  0.00000000E+00  0.00000000E+00  0.00000000E+00
  0.00000000E+00  0.00000000E+00  0.00000000E+00
  0.00000000E+00  0.00000000E+00  0.00000000E+00
  0.00000000E+00  0.00000000E+00  0.00000000E+00
  0.00000000E+00  0.00000000E+00  0.00000000E+00
  0.00000000E+00  0.00000000E+00  0.00000000E+00
  0.00000000E+00  0.00000000E+00  0.00000000E+00
  0.00000000E+00  0.00000000E+00  0.00000000E+00
  0.00000000E+00  0.00000000E+00  0.00000000E+00
  0.00000000E+00  0.00000000E+00  0.00000000E+00
  0.00000000E+00  0.00000000E+00  0.00000000E+00
  0.00000000E+00  0.00000000E+00  0.00000000E+00
  0.00000000E+00  0.00000000E+00  0.00000000E+00
  0.00000000E+00  0.00000000E+00  0.00000000E+00
  0.00000000E+00  0.00000000E+00  0.00000000E+00
  0.00000000E+00  0.00000000E+00  0.00000000E+00
  0.00000000E+00  0.00000000E+00  0.00000000E+00
  0.00000000E+00  0.00000000E+00  0.00000000E+00
  0.00000000E+00  0.00000000E+00  0.00000000E+00
  0.00000000E+00  0.00000000E+00  0.00000000E+00
  0.00000000E+00  0.00000000E+00  0.00000000E+00
  0.00000000E+00  0.00000000E+00  0.00000000E+00
  0.00000000E+00  0.00000000E+00  0.00000000E+00
  0.00000000E+00  0.00000000E+00  0.00000000E+00
  0.00000000E+00  0.00000000E+00  0.00000000E+00
  0.00000000E+00  0.00000000E+00  0.00000000E+00
  0.00000000E+00  0.00000000E+00  0.00000000E+00
  0.00000000E+00  0.00000000E+00  0.00000000E+00
  0.00000000E+00  0.00000000E+00  0.00000000E+00
  0.00000000E+00  0.00000000E+00  0.00000000E+00
  0.00000000E+00  0.00000000E+00  0.00000000E+00
  0.00000000E+00  0.00000000E+00  0.00000000E+00
  0.00000000E+00  0.00000000E+00  0.00000000E+00
  0.00000000E+00  0.00000000E+00  0.00000000E+00
  0.00000000E+00  0.00000000E+00  0.00000000E+00
  0.00000000E+00  0.00000000E+00  0.00000000E+00
  0.00000000E+00  0.00000000E+00  0.00000000E+00
  0.00000000E+00  0.00000000E+00  0.00000000E+00
  0.00000000E+00  0.00000000E+00  0.00000000E+00
  0.00000000E+00  0.00000000E+00  0.00000000E+00
  0.00000000E+00  0.00000000E+00  0.00000000E+00
  0.00000000E+00  0.00000000E+00  0.00000000E+00
  0.00000000E+00  0.00000000E+00  0.00000000E+00
  0.00000000E+00  0.00000000E+00  0.00000000E+00
  0.00000000E+00  0.00000000E+00  0.00000000E+00
  0.00000000E+00  0.00000000E+00  0.00000000E+00
  0.00000000E+00  0.00000000E+00  0.00000000E+00
  0.00000000E+00  0.00000000E+00  0.00000000E+00
  0.00000000E+00  0.00000000E+00  0.00000000E+00
  0.00000000E+00  0.00000000E+00  0.00000000E+00
  0.00000000E+00  0.00000000E+00  0.00000000E+00
  0.00000000E+00  0.00000000E+00  0.00000000E+00
  0.00000000E+00  0.00000000E+00  0.00000000E+00
  0.00000000E+00  0.00000000E+00  0.00000000E+00
  0.00000000E+00  0.00000000E+00  0.00000000E+00
  0.00000000E+00  0.00000000E+00  0.00000000E+00
  0.00000000E+00  0.00000000E+00  0.00000000E+00
  0.00000000E+00  0.00000000E+00  0.00000000E+00
  0.00000000E+00  0.00000000E+00  0.00000000E+00
  0.00000000E+00  0.00000000E+00  0.00000000E+00
  0.00000000E+00  0.00000000E+00  0.00000000E+00
  0.00000000E+00  0.00000000E+00  0.00000000E+00
  0.00000000E+00  0.00000000E+00  0.00000000E+00
  0.00000000E+00  0.00000000E+00  0.00000000E+00
  0.00000000E+00  0.00000000E+00  0.00000000E+00
  0.00000000E+00  0.00000000E+00  0.00000000E+00
  0.00000000E+00  0.00000000E+00  0.00000000E+00
  0.00000000E+00  0.00000000E+00  0.00000000E+00
  0.00000000E+00  0.00000000E+00  0.00000000E+00
  0.00000000E+00  0.00000000E+00  0.00000000E+00
  0.00000000E+00  0.00000000E+00  0.00000000E+00
  0.00000000E+00  0.00000000E+00  0.00000000E+00
  0.00000000E+00  0.00000000E+00  0.00000000E+00
  0.00000000E+00  0.00000000E+00  0.00000000E+00
  0.00000000E+00  0.00000000E+00  0.00000000E+00
  0.00000000E+00  0.00000000E+00  0.00000000E+00
  0.00000000E+00  0.00000000E+00  0.00000000E+00
  0.00000000E+00  0.00000000E+00  0.00000000E+00
  0.00000000E+00  0.00000000E+00  0.00000000E+00
  0.00000000E+00  0.00000000E+00  0.00000000E+00
  0.00000000E+00  0.00000000E+00  0.00000000E+00
  0.00000000E+00  0.00000000E+00  0.00000000E+00
  0.00000000E+00  0.00000000E+00  0.00000000E+00
