CIF file                                
   1.00000000000000     
    11.3519997597000071    0.0000000000000000    0.0000000000000000
     0.0000000000000000   11.3519997597000071    0.0000000000000000
     0.0000000000000000    0.0000000000000000    9.6265001297000055
   Ti   O    Nb
    35    72     1
Direct
  0.1664081254962241  0.0000048492645000  0.7497176277075852
  0.4999985221381962  0.0000042346928350  0.7543322467681429
  0.8335892860294100  0.9999843658014400  0.7497170696474789
  0.1661969045754244  0.3332039900981660  0.7489355980697634
  0.4999934386459685  0.3303153330756171  0.7572099896951228
  0.8338036344358843  0.3332061799334811  0.7489395853769942
  0.1661984906301756  0.6667917790187045  0.7489391205367608
  0.5000043513094704  0.6696886042470390  0.7572042164311968
  0.8338015543225257  0.6667901243404170  0.7489395875901232
  0.9999846534213426  0.1664096208362012  0.2502813477933344
  0.3332023106371777  0.1661969188284052  0.2510595052583326
  0.6667924440497039  0.1661974909640191  0.2510574777814044
  0.0000032922531392  0.4999997476559260  0.2456746732180199
  0.3303210387526724  0.5000047520555380  0.2428019958427405
  0.6696803934392035  0.4999936511520379  0.2428097324696147
  0.0000078623225493  0.8335843943651280  0.2502734526451509
  0.3332070475248051  0.8338046201696041  0.2510570090454126
  0.6667963412897271  0.8338020988068979  0.2510522813785034
  0.9999990665072190  0.0000041285350428  1.0000012880347529
  0.3322137956551801  0.0000102590339070  0.0004020311702807
  0.6677825781945921  0.9999993651664424  0.0003975181497882
  0.0000009893042604  0.3322095729469636  0.9995963612465906
  0.3315242612992196  0.3315381410234466  0.0000063619002630
  0.6684751564733931  0.3315289130066642  0.9999942681353871
  0.0000091357704283  0.6677878335155987  0.9995923226895538
  0.3315375340678818  0.6684813390307739  0.9999942900724873
  0.6684808350104454  0.6684644213366415  0.0000053960709135
  0.1664496389784308  0.1664780757098747  0.4999918561738596
  0.4999866343767959  0.1640178488113769  0.5006485428140441
  0.8335135245956465  0.1664494755309673  0.5000117274982484
  0.1640186879661462  0.5000098789303102  0.4993499109151966
  0.8359876129942665  0.4999866506207489  0.4993478270292058
  0.1664789247462168  0.8335444911924874  0.4999996819283313
  0.5000100926397106  0.8359898939498487  0.5006502375318679
  0.8335437338416644  0.8335137440709980  0.4999859055436554
  0.9999993125595201  0.9999958851171236  0.7935299966213770
  0.3331253004536139  0.0000049403736397  0.7950112505402053
  0.6668733595831667  0.9999911424726016  0.7950081607049626
  0.0000005573117478  0.3335275585113036  0.7925857744721437
  0.3331470009832581  0.3329656010379003  0.7945504968954981
  0.6668471565338474  0.3329804209623061  0.7945428115589580
  0.0000034842954172  0.6664695927652560  0.7925886871911502
  0.3331549337459323  0.6670388466334517  0.7945387223729359
  0.6668540700750624  0.6670143126811556  0.7945477319326218
  0.1667939880922673  0.1668178079060363  0.2942197272281892
  0.4999959851179082  0.1671288810195778  0.2953809557356326
  0.8331856860356422  0.1668091254278022  0.2942352767518197
  0.1662293742280277  0.5000073541446178  0.2917372569121929
  0.4999998412570091  0.4999807032885953  0.2891157686445054
  0.8337752894364451  0.5000040564160426  0.2917373845540342
  0.1668125737708565  0.8331880720408148  0.2942224137217334
  0.5000023609060112  0.8328822827870781  0.2953844935346623
  0.8331996318549522  0.8331655513583016  0.2942135951218072
  0.9999906854988954  0.1663618306191101  0.0440412193220643
  0.3325436660441284  0.1661691658659048  0.0446185937278475
  0.6674662913373176  0.1661642184608559  0.0446098608926284
  0.0000114412242053  0.5000013088767969  0.0422004848243902
  0.3318015612977306  0.5000044267585868  0.0411622818277168
  0.6681957708919728  0.4999973725158106  0.0411702458378603
  0.0000089549075387  0.8336411634981072  0.0440354489208510
  0.3325478597712101  0.8338419375306712  0.0446115631987834
  0.6674543423870651  0.8338330586061944  0.0446107160572445
  0.1670556017848888  0.0000055626309070  0.5437608769142406
  0.4999918724773026  0.0000024337060480  0.5455407447820301
  0.8329462823553703  0.9999893468852619  0.5437645103514829
  0.1672029128906241  0.3337138921346120  0.5430208353923938
  0.4999871428584790  0.3325967707952336  0.5474669503463433
  0.8328053781613942  0.3336989752434234  0.5430332732239550
  0.1671798740754683  0.6662973205852190  0.5430325392617138
  0.5000213681507184  0.6674076161272608  0.5474642451690876
  0.8328055605797553  0.6662835717130773  0.5430197836967950
  0.1663584556396428  0.0000116013332531  0.9559583173308059
  0.5000003796315514  0.0000101264897364  0.9578005906304285
  0.8336409497974192  0.9999933594070253  0.9559563230654444
  0.1661622494848808  0.3325386408642433  0.9553844132564404
  0.4999986407710846  0.3317992488375975  0.9588431819142200
  0.8338369713625278  0.3325541668829731  0.9553813582668970
  0.1661704632109324  0.6674611919856148  0.9553815416462229
  0.5000041100577177  0.6681985506717979  0.9588352786103178
  0.8338397545701984  0.6674528300711443  0.9553869380741957
  0.9999895642073222  0.1670627707599334  0.4562377604036709
  0.3336998383472687  0.1671894705673155  0.4569645593314595
  0.6662827224670201  0.1671900720021239  0.4569773498032435
  0.0000034785354083  0.4999926868088529  0.4544618587734491
  0.3326021508264331  0.5000204815188691  0.4525522960227189
  0.6674022241432302  0.4999862237482195  0.4525559760610470
  0.0000064944196478  0.8329437329274488  0.4562262846395552
  0.3337131593661233  0.8327986816544752  0.4569762670323753
  0.6662981967548118  0.8328206548846255  0.4569624959355090
  0.1668086435609852  0.1668092877937375  0.7057658525379424
  0.5000009608552726  0.1662249130871808  0.7082692813431607
  0.8331691119869630  0.1667951599223837  0.7057830348682577
  0.1671300893873722  0.5000021462579450  0.7046185009292847
  0.4999824564370827  0.4999998188199435  0.7109007975612596
  0.8328846569752327  0.4999960987177559  0.7046159764990144
  0.1668253689371916  0.8332009542906587  0.7057724741841808
  0.5000054538213816  0.8337798683614439  0.7082698845840926
  0.8331847531299991  0.8331835926028022  0.7057656458058500
  0.9999926801388250 -0.0000002531508163  0.2064652192500999
  0.3335335006708419  0.0000026572105152  0.2074118320664260
  0.6664677997720333  0.9999999257900749  0.2074052424036446
  0.9999926943922172  0.3331281141848111  0.2049899751076459
  0.3329582706780528  0.3331559340156813  0.2054598400850386
  0.6670376095707403  0.3331471072951263  0.2054529939685447
  0.0000057119977375  0.6668729766480624  0.2049872886846242
  0.3329841984413875  0.6668536232228101  0.2054487117361586
  0.6670182258256551  0.6668457538411694  0.2054583864034017
  0.4999896431982196  0.4999989344582967  0.5000235487814376
 
  0.00000000E+00  0.00000000E+00  0.00000000E+00
  0.00000000E+00  0.00000000E+00  0.00000000E+00
  0.00000000E+00  0.00000000E+00  0.00000000E+00
  0.00000000E+00  0.00000000E+00  0.00000000E+00
  0.00000000E+00  0.00000000E+00  0.00000000E+00
  0.00000000E+00  0.00000000E+00  0.00000000E+00
  0.00000000E+00  0.00000000E+00  0.00000000E+00
  0.00000000E+00  0.00000000E+00  0.00000000E+00
  0.00000000E+00  0.00000000E+00  0.00000000E+00
  0.00000000E+00  0.00000000E+00  0.00000000E+00
  0.00000000E+00  0.00000000E+00  0.00000000E+00
  0.00000000E+00  0.00000000E+00  0.00000000E+00
  0.00000000E+00  0.00000000E+00  0.00000000E+00
  0.00000000E+00  0.00000000E+00  0.00000000E+00
  0.00000000E+00  0.00000000E+00  0.00000000E+00
  0.00000000E+00  0.00000000E+00  0.00000000E+00
  0.00000000E+00  0.00000000E+00  0.00000000E+00
  0.00000000E+00  0.00000000E+00  0.00000000E+00
  0.00000000E+00  0.00000000E+00  0.00000000E+00
  0.00000000E+00  0.00000000E+00  0.00000000E+00
  0.00000000E+00  0.00000000E+00  0.00000000E+00
  0.00000000E+00  0.00000000E+00  0.00000000E+00
  0.00000000E+00  0.00000000E+00  0.00000000E+00
  0.00000000E+00  0.00000000E+00  0.00000000E+00
  0.00000000E+00  0.00000000E+00  0.00000000E+00
  0.00000000E+00  0.00000000E+00  0.00000000E+00
  0.00000000E+00  0.00000000E+00  0.00000000E+00
  0.00000000E+00  0.00000000E+00  0.00000000E+00
  0.00000000E+00  0.00000000E+00  0.00000000E+00
  0.00000000E+00  0.00000000E+00  0.00000000E+00
  0.00000000E+00  0.00000000E+00  0.00000000E+00
  0.00000000E+00  0.00000000E+00  0.00000000E+00
  0.00000000E+00  0.00000000E+00  0.00000000E+00
  0.00000000E+00  0.00000000E+00  0.00000000E+00
  0.00000000E+00  0.00000000E+00  0.00000000E+00
  0.00000000E+00  0.00000000E+00  0.00000000E+00
  0.00000000E+00  0.00000000E+00  0.00000000E+00
  0.00000000E+00  0.00000000E+00  0.00000000E+00
  0.00000000E+00  0.00000000E+00  0.00000000E+00
  0.00000000E+00  0.00000000E+00  0.00000000E+00
  0.00000000E+00  0.00000000E+00  0.00000000E+00
  0.00000000E+00  0.00000000E+00  0.00000000E+00
  0.00000000E+00  0.00000000E+00  0.00000000E+00
  0.00000000E+00  0.00000000E+00  0.00000000E+00
  0.00000000E+00  0.00000000E+00  0.00000000E+00
  0.00000000E+00  0.00000000E+00  0.00000000E+00
  0.00000000E+00  0.00000000E+00  0.00000000E+00
  0.00000000E+00  0.00000000E+00  0.00000000E+00
  0.00000000E+00  0.00000000E+00  0.00000000E+00
  0.00000000E+00  0.00000000E+00  0.00000000E+00
  0.00000000E+00  0.00000000E+00  0.00000000E+00
  0.00000000E+00  0.00000000E+00  0.00000000E+00
  0.00000000E+00  0.00000000E+00  0.00000000E+00
  0.00000000E+00  0.00000000E+00  0.00000000E+00
  0.00000000E+00  0.00000000E+00  0.00000000E+00
  0.00000000E+00  0.00000000E+00  0.00000000E+00
  0.00000000E+00  0.00000000E+00  0.00000000E+00
  0.00000000E+00  0.00000000E+00  0.00000000E+00
  0.00000000E+00  0.00000000E+00  0.00000000E+00
  0.00000000E+00  0.00000000E+00  0.00000000E+00
  0.00000000E+00  0.00000000E+00  0.00000000E+00
  0.00000000E+00  0.00000000E+00  0.00000000E+00
  0.00000000E+00  0.00000000E+00  0.00000000E+00
  0.00000000E+00  0.00000000E+00  0.00000000E+00
  0.00000000E+00  0.00000000E+00  0.00000000E+00
  0.00000000E+00  0.00000000E+00  0.00000000E+00
  0.00000000E+00  0.00000000E+00  0.00000000E+00
  0.00000000E+00  0.00000000E+00  0.00000000E+00
  0.00000000E+00  0.00000000E+00  0.00000000E+00
  0.00000000E+00  0.00000000E+00  0.00000000E+00
  0.00000000E+00  0.00000000E+00  0.00000000E+00
  0.00000000E+00  0.00000000E+00  0.00000000E+00
  0.00000000E+00  0.00000000E+00  0.00000000E+00
  0.00000000E+00  0.00000000E+00  0.00000000E+00
  0.00000000E+00  0.00000000E+00  0.00000000E+00
  0.00000000E+00  0.00000000E+00  0.00000000E+00
  0.00000000E+00  0.00000000E+00  0.00000000E+00
  0.00000000E+00  0.00000000E+00  0.00000000E+00
  0.00000000E+00  0.00000000E+00  0.00000000E+00
  0.00000000E+00  0.00000000E+00  0.00000000E+00
  0.00000000E+00  0.00000000E+00  0.00000000E+00
  0.00000000E+00  0.00000000E+00  0.00000000E+00
  0.00000000E+00  0.00000000E+00  0.00000000E+00
  0.00000000E+00  0.00000000E+00  0.00000000E+00
  0.00000000E+00  0.00000000E+00  0.00000000E+00
  0.00000000E+00  0.00000000E+00  0.00000000E+00
  0.00000000E+00  0.00000000E+00  0.00000000E+00
  0.00000000E+00  0.00000000E+00  0.00000000E+00
  0.00000000E+00  0.00000000E+00  0.00000000E+00
  0.00000000E+00  0.00000000E+00  0.00000000E+00
  0.00000000E+00  0.00000000E+00  0.00000000E+00
  0.00000000E+00  0.00000000E+00  0.00000000E+00
  0.00000000E+00  0.00000000E+00  0.00000000E+00
  0.00000000E+00  0.00000000E+00  0.00000000E+00
  0.00000000E+00  0.00000000E+00  0.00000000E+00
  0.00000000E+00  0.00000000E+00  0.00000000E+00
  0.00000000E+00  0.00000000E+00  0.00000000E+00
  0.00000000E+00  0.00000000E+00  0.00000000E+00
  0.00000000E+00  0.00000000E+00  0.00000000E+00
  0.00000000E+00  0.00000000E+00  0.00000000E+00
  0.00000000E+00  0.00000000E+00  0.00000000E+00
  0.00000000E+00  0.00000000E+00  0.00000000E+00
  0.00000000E+00  0.00000000E+00  0.00000000E+00
  0.00000000E+00  0.00000000E+00  0.00000000E+00
  0.00000000E+00  0.00000000E+00  0.00000000E+00
  0.00000000E+00  0.00000000E+00  0.00000000E+00
  0.00000000E+00  0.00000000E+00  0.00000000E+00
  0.00000000E+00  0.00000000E+00  0.00000000E+00
